LAMMPS data file via write_data, version 2 Aug 2023, timestep = 0, units = metal

880 atoms
2 atom types

0 46.15297974 xlo xhi
0 48.44336421158499 ylo yhi
0 10 zlo zhi

Masses

1 10.811
2 14.0067

Atoms # charge

1 1 0.42 0 0 0 0 0 0
2 2 -0.42 0.6989 1.21053028768301 0 0 0 0
3 1 0.42 2.0967 1.21053028768301 0 0 0 0
4 2 -0.42 2.7956 0 0 0 0 0
5 1 0.42 4.1934 0 0 0 0 0
6 2 -0.42 4.8923 1.21053028768301 0 0 0 0
7 1 0.42 6.2901 1.21053028768301 0 0 0 0
8 2 -0.42 6.989 0 0 0 0 0
9 1 0.42 8.3868 0 0 0 0 0
10 2 -0.42 9.0857 1.21053028768301 0 0 0 0
11 1 0.42 10.4835 1.21053028768301 0 0 0 0
12 2 -0.42 11.1824 0 0 0 0 0
13 1 0.42 12.5802 0 0 0 0 0
14 2 -0.42 13.2791 1.21053028768301 0 0 0 0
15 1 0.42 14.6769 1.21053028768301 0 0 0 0
16 2 -0.42 15.3758 0 0 0 0 0
17 1 0.42 16.7736 0 0 0 0 0
18 2 -0.42 17.4725 1.21053028768301 0 0 0 0
19 1 0.42 18.8703 1.21053028768301 0 0 0 0
20 2 -0.42 19.5692 0 0 0 0 0
21 1 0.42 20.967 0 0 0 0 0
22 2 -0.42 21.6659 1.21053028768301 0 0 0 0
23 1 0.42 23.063699999999997 1.21053028768301 0 0 0 0
45 1 0.42 0 2.42106057536602 0 0 0 0
46 2 -0.42 0.6989 3.63159086304903 0 0 0 0
47 1 0.42 2.0967 3.63159086304903 0 0 0 0
48 2 -0.42 2.7956 2.42106057536602 0 0 0 0
49 1 0.42 4.1934 2.42106057536602 0 0 0 0
50 2 -0.42 4.8923 3.63159086304903 0 0 0 0
51 1 0.42 6.2901 3.63159086304903 0 0 0 0
52 2 -0.42 6.989 2.42106057536602 0 0 0 0
53 1 0.42 8.3868 2.42106057536602 0 0 0 0
54 2 -0.42 9.0857 3.63159086304903 0 0 0 0
55 1 0.42 10.4835 3.63159086304903 0 0 0 0
56 2 -0.42 11.1824 2.42106057536602 0 0 0 0
57 1 0.42 12.5802 2.42106057536602 0 0 0 0
58 2 -0.42 13.2791 3.63159086304903 0 0 0 0
59 1 0.42 14.6769 3.63159086304903 0 0 0 0
60 2 -0.42 15.3758 2.42106057536602 0 0 0 0
61 1 0.42 16.7736 2.42106057536602 0 0 0 0
62 2 -0.42 17.4725 3.63159086304903 0 0 0 0
63 1 0.42 18.8703 3.63159086304903 0 0 0 0
64 2 -0.42 19.5692 2.42106057536602 0 0 0 0
65 1 0.42 20.967 2.42106057536602 0 0 0 0
66 2 -0.42 21.6659 3.63159086304903 0 0 0 0
67 1 0.42 23.063699999999997 3.63159086304903 0 0 0 0
89 1 0.42 0 4.84212115073204 0 0 0 0
90 2 -0.42 0.6989 6.05265143841505 0 0 0 0
91 1 0.42 2.0967 6.05265143841505 0 0 0 0
92 2 -0.42 2.7956 4.84212115073204 0 0 0 0
93 1 0.42 4.1934 4.84212115073204 0 0 0 0
94 2 -0.42 4.8923 6.05265143841505 0 0 0 0
95 1 0.42 6.2901 6.05265143841505 0 0 0 0
96 2 -0.42 6.989 4.84212115073204 0 0 0 0
97 1 0.42 8.3868 4.84212115073204 0 0 0 0
98 2 -0.42 9.0857 6.05265143841505 0 0 0 0
99 1 0.42 10.4835 6.05265143841505 0 0 0 0
100 2 -0.42 11.1824 4.84212115073204 0 0 0 0
101 1 0.42 12.5802 4.84212115073204 0 0 0 0
102 2 -0.42 13.2791 6.05265143841505 0 0 0 0
103 1 0.42 14.6769 6.05265143841505 0 0 0 0
104 2 -0.42 15.3758 4.84212115073204 0 0 0 0
105 1 0.42 16.7736 4.84212115073204 0 0 0 0
106 2 -0.42 17.4725 6.05265143841505 0 0 0 0
107 1 0.42 18.8703 6.05265143841505 0 0 0 0
108 2 -0.42 19.5692 4.84212115073204 0 0 0 0
109 1 0.42 20.967 4.84212115073204 0 0 0 0
110 2 -0.42 21.6659 6.05265143841505 0 0 0 0
111 1 0.42 23.063699999999997 6.05265143841505 0 0 0 0
133 1 0.42 0 7.263181726098059 0 0 0 0
134 2 -0.42 0.6989 8.47371201378107 0 0 0 0
135 1 0.42 2.0967 8.47371201378107 0 0 0 0
136 2 -0.42 2.7956 7.263181726098059 0 0 0 0
137 1 0.42 4.1934 7.263181726098059 0 0 0 0
138 2 -0.42 4.8923 8.47371201378107 0 0 0 0
139 1 0.42 6.2901 8.47371201378107 0 0 0 0
140 2 -0.42 6.989 7.263181726098059 0 0 0 0
141 1 0.42 8.3868 7.263181726098059 0 0 0 0
142 2 -0.42 9.0857 8.47371201378107 0 0 0 0
143 1 0.42 10.4835 8.47371201378107 0 0 0 0
144 2 -0.42 11.1824 7.263181726098059 0 0 0 0
145 1 0.42 12.5802 7.263181726098059 0 0 0 0
146 2 -0.42 13.2791 8.47371201378107 0 0 0 0
147 1 0.42 14.6769 8.47371201378107 0 0 0 0
148 2 -0.42 15.3758 7.263181726098059 0 0 0 0
149 1 0.42 16.7736 7.263181726098059 0 0 0 0
150 2 -0.42 17.4725 8.47371201378107 0 0 0 0
151 1 0.42 18.8703 8.47371201378107 0 0 0 0
152 2 -0.42 19.5692 7.263181726098059 0 0 0 0
153 1 0.42 20.967 7.263181726098059 0 0 0 0
154 2 -0.42 21.6659 8.47371201378107 0 0 0 0
155 1 0.42 23.063699999999997 8.47371201378107 0 0 0 0
177 1 0.42 0 9.68424230146408 0 0 0 0
178 2 -0.42 0.6989 10.89477258914709 0 0 0 0
179 1 0.42 2.0967 10.89477258914709 0 0 0 0
180 2 -0.42 2.7956 9.68424230146408 0 0 0 0
181 1 0.42 4.1934 9.68424230146408 0 0 0 0
182 2 -0.42 4.8923 10.89477258914709 0 0 0 0
183 1 0.42 6.2901 10.89477258914709 0 0 0 0
184 2 -0.42 6.989 9.68424230146408 0 0 0 0
185 1 0.42 8.3868 9.68424230146408 0 0 0 0
186 2 -0.42 9.0857 10.89477258914709 0 0 0 0
187 1 0.42 10.4835 10.89477258914709 0 0 0 0
188 2 -0.42 11.1824 9.68424230146408 0 0 0 0
189 1 0.42 12.5802 9.68424230146408 0 0 0 0
190 2 -0.42 13.2791 10.89477258914709 0 0 0 0
191 1 0.42 14.6769 10.89477258914709 0 0 0 0
192 2 -0.42 15.3758 9.68424230146408 0 0 0 0
193 1 0.42 16.7736 9.68424230146408 0 0 0 0
194 2 -0.42 17.4725 10.89477258914709 0 0 0 0
195 1 0.42 18.8703 10.89477258914709 0 0 0 0
196 2 -0.42 19.5692 9.68424230146408 0 0 0 0
197 1 0.42 20.967 9.68424230146408 0 0 0 0
198 2 -0.42 21.6659 10.89477258914709 0 0 0 0
199 1 0.42 23.063699999999997 10.89477258914709 0 0 0 0
221 1 0.42 0 12.1053028768301 0 0 0 0
222 2 -0.42 0.6989 13.31583316451311 0 0 0 0
223 1 0.42 2.0967 13.31583316451311 0 0 0 0
224 2 -0.42 2.7956 12.1053028768301 0 0 0 0
225 1 0.42 4.1934 12.1053028768301 0 0 0 0
226 2 -0.42 4.8923 13.31583316451311 0 0 0 0
227 1 0.42 6.2901 13.31583316451311 0 0 0 0
228 2 -0.42 6.989 12.1053028768301 0 0 0 0
229 1 0.42 8.3868 12.1053028768301 0 0 0 0
230 2 -0.42 9.0857 13.31583316451311 0 0 0 0
231 1 0.42 10.4835 13.31583316451311 0 0 0 0
232 2 -0.42 11.1824 12.1053028768301 0 0 0 0
233 1 0.42 12.5802 12.1053028768301 0 0 0 0
234 2 -0.42 13.2791 13.31583316451311 0 0 0 0
235 1 0.42 14.6769 13.31583316451311 0 0 0 0
236 2 -0.42 15.3758 12.1053028768301 0 0 0 0
237 1 0.42 16.7736 12.1053028768301 0 0 0 0
238 2 -0.42 17.4725 13.31583316451311 0 0 0 0
239 1 0.42 18.8703 13.31583316451311 0 0 0 0
240 2 -0.42 19.5692 12.1053028768301 0 0 0 0
241 1 0.42 20.967 12.1053028768301 0 0 0 0
242 2 -0.42 21.6659 13.31583316451311 0 0 0 0
243 1 0.42 23.063699999999997 13.31583316451311 0 0 0 0
265 1 0.42 0 14.526363452196119 0 0 0 0
266 2 -0.42 0.6989 15.736893739879129 0 0 0 0
267 1 0.42 2.0967 15.736893739879129 0 0 0 0
268 2 -0.42 2.7956 14.526363452196119 0 0 0 0
269 1 0.42 4.1934 14.526363452196119 0 0 0 0
270 2 -0.42 4.8923 15.736893739879129 0 0 0 0
271 1 0.42 6.2901 15.736893739879129 0 0 0 0
272 2 -0.42 6.989 14.526363452196119 0 0 0 0
273 1 0.42 8.3868 14.526363452196119 0 0 0 0
274 2 -0.42 9.0857 15.736893739879129 0 0 0 0
275 1 0.42 10.4835 15.736893739879129 0 0 0 0
276 2 -0.42 11.1824 14.526363452196119 0 0 0 0
277 1 0.42 12.5802 14.526363452196119 0 0 0 0
278 2 -0.42 13.2791 15.736893739879129 0 0 0 0
279 1 0.42 14.6769 15.736893739879129 0 0 0 0
280 2 -0.42 15.3758 14.526363452196119 0 0 0 0
281 1 0.42 16.7736 14.526363452196119 0 0 0 0
282 2 -0.42 17.4725 15.736893739879129 0 0 0 0
283 1 0.42 18.8703 15.736893739879129 0 0 0 0
284 2 -0.42 19.5692 14.526363452196119 0 0 0 0
285 1 0.42 20.967 14.526363452196119 0 0 0 0
286 2 -0.42 21.6659 15.736893739879129 0 0 0 0
287 1 0.42 23.063699999999997 15.736893739879129 0 0 0 0
309 1 0.42 0 16.94742402756214 0 0 0 0
310 2 -0.42 0.6989 18.15795431524515 0 0 0 0
311 1 0.42 2.0967 18.15795431524515 0 0 0 0
312 2 -0.42 2.7956 16.94742402756214 0 0 0 0
313 1 0.42 4.1934 16.94742402756214 0 0 0 0
314 2 -0.42 4.8923 18.15795431524515 0 0 0 0
315 1 0.42 6.2901 18.15795431524515 0 0 0 0
316 2 -0.42 6.989 16.94742402756214 0 0 0 0
317 1 0.42 8.3868 16.94742402756214 0 0 0 0
318 2 -0.42 9.0857 18.15795431524515 0 0 0 0
319 1 0.42 10.4835 18.15795431524515 0 0 0 0
320 2 -0.42 11.1824 16.94742402756214 0 0 0 0
321 1 0.42 12.5802 16.94742402756214 0 0 0 0
322 2 -0.42 13.2791 18.15795431524515 0 0 0 0
323 1 0.42 14.6769 18.15795431524515 0 0 0 0
324 2 -0.42 15.3758 16.94742402756214 0 0 0 0
325 1 0.42 16.7736 16.94742402756214 0 0 0 0
326 2 -0.42 17.4725 18.15795431524515 0 0 0 0
327 1 0.42 18.8703 18.15795431524515 0 0 0 0
328 2 -0.42 19.5692 16.94742402756214 0 0 0 0
329 1 0.42 20.967 16.94742402756214 0 0 0 0
330 2 -0.42 21.6659 18.15795431524515 0 0 0 0
331 1 0.42 23.063699999999997 18.15795431524515 0 0 0 0
353 1 0.42 0 19.36848460292816 0 0 0 0
354 2 -0.42 0.6989 20.57901489061117 0 0 0 0
355 1 0.42 2.0967 20.57901489061117 0 0 0 0
356 2 -0.42 2.7956 19.36848460292816 0 0 0 0
357 1 0.42 4.1934 19.36848460292816 0 0 0 0
358 2 -0.42 4.8923 20.57901489061117 0 0 0 0
359 1 0.42 6.2901 20.57901489061117 0 0 0 0
360 2 -0.42 6.989 19.36848460292816 0 0 0 0
361 1 0.42 8.3868 19.36848460292816 0 0 0 0
362 2 -0.42 9.0857 20.57901489061117 0 0 0 0
363 1 0.42 10.4835 20.57901489061117 0 0 0 0
364 2 -0.42 11.1824 19.36848460292816 0 0 0 0
365 1 0.42 12.5802 19.36848460292816 0 0 0 0
366 2 -0.42 13.2791 20.57901489061117 0 0 0 0
367 1 0.42 14.6769 20.57901489061117 0 0 0 0
368 2 -0.42 15.3758 19.36848460292816 0 0 0 0
369 1 0.42 16.7736 19.36848460292816 0 0 0 0
370 2 -0.42 17.4725 20.57901489061117 0 0 0 0
371 1 0.42 18.8703 20.57901489061117 0 0 0 0
372 2 -0.42 19.5692 19.36848460292816 0 0 0 0
373 1 0.42 20.967 19.36848460292816 0 0 0 0
374 2 -0.42 21.6659 20.57901489061117 0 0 0 0
375 1 0.42 23.063699999999997 20.57901489061117 0 0 0 0
397 1 0.42 0 21.78954517829418 0 0 0 0
398 2 -0.42 0.6989 23.00007546597719 0 0 0 0
399 1 0.42 2.0967 23.00007546597719 0 0 0 0
400 2 -0.42 2.7956 21.78954517829418 0 0 0 0
401 1 0.42 4.1934 21.78954517829418 0 0 0 0
402 2 -0.42 4.8923 23.00007546597719 0 0 0 0
403 1 0.42 6.2901 23.00007546597719 0 0 0 0
404 2 -0.42 6.989 21.78954517829418 0 0 0 0
405 1 0.42 8.3868 21.78954517829418 0 0 0 0
406 2 -0.42 9.0857 23.00007546597719 0 0 0 0
407 1 0.42 10.4835 23.00007546597719 0 0 0 0
408 2 -0.42 11.1824 21.78954517829418 0 0 0 0
409 1 0.42 12.5802 21.78954517829418 0 0 0 0
410 2 -0.42 13.2791 23.00007546597719 0 0 0 0
411 1 0.42 14.6769 23.00007546597719 0 0 0 0
412 2 -0.42 15.3758 21.78954517829418 0 0 0 0
413 1 0.42 16.7736 21.78954517829418 0 0 0 0
414 2 -0.42 17.4725 23.00007546597719 0 0 0 0
415 1 0.42 18.8703 23.00007546597719 0 0 0 0
416 2 -0.42 19.5692 21.78954517829418 0 0 0 0
417 1 0.42 20.967 21.78954517829418 0 0 0 0
418 2 -0.42 21.6659 23.00007546597719 0 0 0 0
419 1 0.42 23.063699999999997 23.00007546597719 0 0 0 0
441 1 0.42 0 24.2106057536602 0 0 0 0
442 2 -0.42 0.6989 25.42113604134321 0 0 0 0
443 1 0.42 2.0967 25.42113604134321 0 0 0 0
444 2 -0.42 2.7956 24.2106057536602 0 0 0 0
445 1 0.42 4.1934 24.2106057536602 0 0 0 0
446 2 -0.42 4.8923 25.42113604134321 0 0 0 0
447 1 0.42 6.2901 25.42113604134321 0 0 0 0
448 2 -0.42 6.989 24.2106057536602 0 0 0 0
449 1 0.42 8.3868 24.2106057536602 0 0 0 0
450 2 -0.42 9.0857 25.42113604134321 0 0 0 0
451 1 0.42 10.4835 25.42113604134321 0 0 0 0
452 2 -0.42 11.1824 24.2106057536602 0 0 0 0
453 1 0.42 12.5802 24.2106057536602 0 0 0 0
454 2 -0.42 13.2791 25.42113604134321 0 0 0 0
455 1 0.42 14.6769 25.42113604134321 0 0 0 0
456 2 -0.42 15.3758 24.2106057536602 0 0 0 0
457 1 0.42 16.7736 24.2106057536602 0 0 0 0
458 2 -0.42 17.4725 25.42113604134321 0 0 0 0
459 1 0.42 18.8703 25.42113604134321 0 0 0 0
460 2 -0.42 19.5692 24.2106057536602 0 0 0 0
461 1 0.42 20.967 24.2106057536602 0 0 0 0
462 2 -0.42 21.6659 25.42113604134321 0 0 0 0
463 1 0.42 23.063699999999997 25.42113604134321 0 0 0 0
485 1 0.42 0 26.63166632902622 0 0 0 0
488 2 -0.42 2.7956 26.63166632902622 0 0 0 0
489 1 0.42 4.1934 26.63166632902622 0 0 0 0
492 2 -0.42 6.989 26.63166632902622 0 0 0 0
493 1 0.42 8.3868 26.63166632902622 0 0 0 0
496 2 -0.42 11.1824 26.63166632902622 0 0 0 0
497 1 0.42 12.5802 26.63166632902622 0 0 0 0
500 2 -0.42 15.3758 26.63166632902622 0 0 0 0
501 1 0.42 16.7736 26.63166632902622 0 0 0 0
504 2 -0.42 19.5692 26.63166632902622 0 0 0 0
505 1 0.42 20.967 26.63166632902622 0 0 0 0
486 2 -0.42 0.6989 27.84219661670923 0 0 0 0
487 1 0.42 2.0967 27.84219661670923 0 0 0 0
490 2 -0.42 4.8923 27.84219661670923 0 0 0 0
491 1 0.42 6.2901 27.84219661670923 0 0 0 0
494 2 -0.42 9.0857 27.84219661670923 0 0 0 0
495 1 0.42 10.4835 27.84219661670923 0 0 0 0
498 2 -0.42 13.2791 27.84219661670923 0 0 0 0
499 1 0.42 14.6769 27.84219661670923 0 0 0 0
502 2 -0.42 17.4725 27.84219661670923 0 0 0 0
503 1 0.42 18.8703 27.84219661670923 0 0 0 0
506 2 -0.42 21.6659 27.84219661670923 0 0 0 0
507 1 0.42 23.063699999999997 27.84219661670923 0 0 0 0
529 1 0.42 0 29.052726904392237 0 0 0 0
530 2 -0.42 0.6989 30.263257192075248 0 0 0 0
531 1 0.42 2.0967 30.263257192075248 0 0 0 0
532 2 -0.42 2.7956 29.052726904392237 0 0 0 0
533 1 0.42 4.1934 29.052726904392237 0 0 0 0
534 2 -0.42 4.8923 30.263257192075248 0 0 0 0
535 1 0.42 6.2901 30.263257192075248 0 0 0 0
536 2 -0.42 6.989 29.052726904392237 0 0 0 0
537 1 0.42 8.3868 29.052726904392237 0 0 0 0
538 2 -0.42 9.0857 30.263257192075248 0 0 0 0
539 1 0.42 10.4835 30.263257192075248 0 0 0 0
540 2 -0.42 11.1824 29.052726904392237 0 0 0 0
541 1 0.42 12.5802 29.052726904392237 0 0 0 0
542 2 -0.42 13.2791 30.263257192075248 0 0 0 0
543 1 0.42 14.6769 30.263257192075248 0 0 0 0
544 2 -0.42 15.3758 29.052726904392237 0 0 0 0
545 1 0.42 16.7736 29.052726904392237 0 0 0 0
546 2 -0.42 17.4725 30.263257192075248 0 0 0 0
547 1 0.42 18.8703 30.263257192075248 0 0 0 0
548 2 -0.42 19.5692 29.052726904392237 0 0 0 0
549 1 0.42 20.967 29.052726904392237 0 0 0 0
550 2 -0.42 21.6659 30.263257192075248 0 0 0 0
551 1 0.42 23.063699999999997 30.263257192075248 0 0 0 0
573 1 0.42 0 31.473787479758258 0 0 0 0
574 2 -0.42 0.6989 32.68431776744127 0 0 0 0
575 1 0.42 2.0967 32.68431776744127 0 0 0 0
576 2 -0.42 2.7956 31.473787479758258 0 0 0 0
577 1 0.42 4.1934 31.473787479758258 0 0 0 0
578 2 -0.42 4.8923 32.68431776744127 0 0 0 0
579 1 0.42 6.2901 32.68431776744127 0 0 0 0
580 2 -0.42 6.989 31.473787479758258 0 0 0 0
581 1 0.42 8.3868 31.473787479758258 0 0 0 0
582 2 -0.42 9.0857 32.68431776744127 0 0 0 0
583 1 0.42 10.4835 32.68431776744127 0 0 0 0
584 2 -0.42 11.1824 31.473787479758258 0 0 0 0
585 1 0.42 12.5802 31.473787479758258 0 0 0 0
586 2 -0.42 13.2791 32.68431776744127 0 0 0 0
587 1 0.42 14.6769 32.68431776744127 0 0 0 0
588 2 -0.42 15.3758 31.473787479758258 0 0 0 0
589 1 0.42 16.7736 31.473787479758258 0 0 0 0
590 2 -0.42 17.4725 32.68431776744127 0 0 0 0
591 1 0.42 18.8703 32.68431776744127 0 0 0 0
592 2 -0.42 19.5692 31.473787479758258 0 0 0 0
593 1 0.42 20.967 31.473787479758258 0 0 0 0
594 2 -0.42 21.6659 32.68431776744127 0 0 0 0
595 1 0.42 23.063699999999997 32.68431776744127 0 0 0 0
617 1 0.42 0 33.89484805512428 0 0 0 0
620 2 -0.42 2.7956 33.89484805512428 0 0 0 0
621 1 0.42 4.1934 33.89484805512428 0 0 0 0
624 2 -0.42 6.989 33.89484805512428 0 0 0 0
625 1 0.42 8.3868 33.89484805512428 0 0 0 0
628 2 -0.42 11.1824 33.89484805512428 0 0 0 0
629 1 0.42 12.5802 33.89484805512428 0 0 0 0
632 2 -0.42 15.3758 33.89484805512428 0 0 0 0
633 1 0.42 16.7736 33.89484805512428 0 0 0 0
636 2 -0.42 19.5692 33.89484805512428 0 0 0 0
637 1 0.42 20.967 33.89484805512428 0 0 0 0
618 2 -0.42 0.6989 35.10537834280729 0 0 0 0
619 1 0.42 2.0967 35.10537834280729 0 0 0 0
622 2 -0.42 4.8923 35.10537834280729 0 0 0 0
623 1 0.42 6.2901 35.10537834280729 0 0 0 0
626 2 -0.42 9.0857 35.10537834280729 0 0 0 0
627 1 0.42 10.4835 35.10537834280729 0 0 0 0
630 2 -0.42 13.2791 35.10537834280729 0 0 0 0
631 1 0.42 14.6769 35.10537834280729 0 0 0 0
634 2 -0.42 17.4725 35.10537834280729 0 0 0 0
635 1 0.42 18.8703 35.10537834280729 0 0 0 0
638 2 -0.42 21.6659 35.10537834280729 0 0 0 0
639 1 0.42 23.063699999999997 35.10537834280729 0 0 0 0
661 1 0.42 0 36.3159086304903 0 0 0 0
662 2 -0.42 0.6989 37.52643891817331 0 0 0 0
663 1 0.42 2.0967 37.52643891817331 0 0 0 0
664 2 -0.42 2.7956 36.3159086304903 0 0 0 0
665 1 0.42 4.1934 36.3159086304903 0 0 0 0
666 2 -0.42 4.8923 37.52643891817331 0 0 0 0
667 1 0.42 6.2901 37.52643891817331 0 0 0 0
668 2 -0.42 6.989 36.3159086304903 0 0 0 0
669 1 0.42 8.3868 36.3159086304903 0 0 0 0
670 2 -0.42 9.0857 37.52643891817331 0 0 0 0
671 1 0.42 10.4835 37.52643891817331 0 0 0 0
672 2 -0.42 11.1824 36.3159086304903 0 0 0 0
673 1 0.42 12.5802 36.3159086304903 0 0 0 0
674 2 -0.42 13.2791 37.52643891817331 0 0 0 0
675 1 0.42 14.6769 37.52643891817331 0 0 0 0
676 2 -0.42 15.3758 36.3159086304903 0 0 0 0
677 1 0.42 16.7736 36.3159086304903 0 0 0 0
678 2 -0.42 17.4725 37.52643891817331 0 0 0 0
679 1 0.42 18.8703 37.52643891817331 0 0 0 0
680 2 -0.42 19.5692 36.3159086304903 0 0 0 0
681 1 0.42 20.967 36.3159086304903 0 0 0 0
682 2 -0.42 21.6659 37.52643891817331 0 0 0 0
683 1 0.42 23.063699999999997 37.52643891817331 0 0 0 0
705 1 0.42 0 38.73696920585632 0 0 0 0
706 2 -0.42 0.6989 39.947499493539325 0 0 0 0
707 1 0.42 2.0967 39.947499493539325 0 0 0 0
708 2 -0.42 2.7956 38.73696920585632 0 0 0 0
709 1 0.42 4.1934 38.73696920585632 0 0 0 0
710 2 -0.42 4.8923 39.947499493539325 0 0 0 0
711 1 0.42 6.2901 39.947499493539325 0 0 0 0
712 2 -0.42 6.989 38.73696920585632 0 0 0 0
713 1 0.42 8.3868 38.73696920585632 0 0 0 0
714 2 -0.42 9.0857 39.947499493539325 0 0 0 0
715 1 0.42 10.4835 39.947499493539325 0 0 0 0
716 2 -0.42 11.1824 38.73696920585632 0 0 0 0
717 1 0.42 12.5802 38.73696920585632 0 0 0 0
718 2 -0.42 13.2791 39.947499493539325 0 0 0 0
719 1 0.42 14.6769 39.947499493539325 0 0 0 0
720 2 -0.42 15.3758 38.73696920585632 0 0 0 0
721 1 0.42 16.7736 38.73696920585632 0 0 0 0
722 2 -0.42 17.4725 39.947499493539325 0 0 0 0
723 1 0.42 18.8703 39.947499493539325 0 0 0 0
724 2 -0.42 19.5692 38.73696920585632 0 0 0 0
725 1 0.42 20.967 38.73696920585632 0 0 0 0
726 2 -0.42 21.6659 39.947499493539325 0 0 0 0
727 1 0.42 23.063699999999997 39.947499493539325 0 0 0 0
749 1 0.42 0 41.15802978122234 0 0 0 0
752 2 -0.42 2.7956 41.15802978122234 0 0 0 0
753 1 0.42 4.1934 41.15802978122234 0 0 0 0
756 2 -0.42 6.989 41.15802978122234 0 0 0 0
757 1 0.42 8.3868 41.15802978122234 0 0 0 0
760 2 -0.42 11.1824 41.15802978122234 0 0 0 0
761 1 0.42 12.5802 41.15802978122234 0 0 0 0
764 2 -0.42 15.3758 41.15802978122234 0 0 0 0
765 1 0.42 16.7736 41.15802978122234 0 0 0 0
768 2 -0.42 19.5692 41.15802978122234 0 0 0 0
769 1 0.42 20.967 41.15802978122234 0 0 0 0
750 2 -0.42 0.6989 42.368560068905346 0 0 0 0
751 1 0.42 2.0967 42.368560068905346 0 0 0 0
754 2 -0.42 4.8923 42.368560068905346 0 0 0 0
755 1 0.42 6.2901 42.368560068905346 0 0 0 0
758 2 -0.42 9.0857 42.368560068905346 0 0 0 0
759 1 0.42 10.4835 42.368560068905346 0 0 0 0
762 2 -0.42 13.2791 42.368560068905346 0 0 0 0
763 1 0.42 14.6769 42.368560068905346 0 0 0 0
766 2 -0.42 17.4725 42.368560068905346 0 0 0 0
767 1 0.42 18.8703 42.368560068905346 0 0 0 0
770 2 -0.42 21.6659 42.368560068905346 0 0 0 0
771 1 0.42 23.063699999999997 42.368560068905346 0 0 0 0
793 1 0.42 0 43.57909035658836 0 0 0 0
794 2 -0.42 0.6989 44.789620644271366 0 0 0 0
795 1 0.42 2.0967 44.789620644271366 0 0 0 0
796 2 -0.42 2.7956 43.57909035658836 0 0 0 0
797 1 0.42 4.1934 43.57909035658836 0 0 0 0
798 2 -0.42 4.8923 44.789620644271366 0 0 0 0
799 1 0.42 6.2901 44.789620644271366 0 0 0 0
800 2 -0.42 6.989 43.57909035658836 0 0 0 0
801 1 0.42 8.3868 43.57909035658836 0 0 0 0
802 2 -0.42 9.0857 44.789620644271366 0 0 0 0
803 1 0.42 10.4835 44.789620644271366 0 0 0 0
804 2 -0.42 11.1824 43.57909035658836 0 0 0 0
805 1 0.42 12.5802 43.57909035658836 0 0 0 0
806 2 -0.42 13.2791 44.789620644271366 0 0 0 0
807 1 0.42 14.6769 44.789620644271366 0 0 0 0
808 2 -0.42 15.3758 43.57909035658836 0 0 0 0
809 1 0.42 16.7736 43.57909035658836 0 0 0 0
810 2 -0.42 17.4725 44.789620644271366 0 0 0 0
811 1 0.42 18.8703 44.789620644271366 0 0 0 0
812 2 -0.42 19.5692 43.57909035658836 0 0 0 0
813 1 0.42 20.967 43.57909035658836 0 0 0 0
814 2 -0.42 21.6659 44.789620644271366 0 0 0 0
815 1 0.42 23.063699999999997 44.789620644271366 0 0 0 0
837 1 0.42 0 46.00015093195438 0 0 0 0
838 2 -0.42 0.6989 47.21068121963739 0 0 0 0
839 1 0.42 2.0967 47.21068121963739 0 0 0 0
840 2 -0.42 2.7956 46.00015093195438 0 0 0 0
841 1 0.42 4.1934 46.00015093195438 0 0 0 0
842 2 -0.42 4.8923 47.21068121963739 0 0 0 0
843 1 0.42 6.2901 47.21068121963739 0 0 0 0
844 2 -0.42 6.989 46.00015093195438 0 0 0 0
845 1 0.42 8.3868 46.00015093195438 0 0 0 0
846 2 -0.42 9.0857 47.21068121963739 0 0 0 0
847 1 0.42 10.4835 47.21068121963739 0 0 0 0
848 2 -0.42 11.1824 46.00015093195438 0 0 0 0
849 1 0.42 12.5802 46.00015093195438 0 0 0 0
850 2 -0.42 13.2791 47.21068121963739 0 0 0 0
851 1 0.42 14.6769 47.21068121963739 0 0 0 0
852 2 -0.42 15.3758 46.00015093195438 0 0 0 0
853 1 0.42 16.7736 46.00015093195438 0 0 0 0
854 2 -0.42 17.4725 47.21068121963739 0 0 0 0
855 1 0.42 18.8703 47.21068121963739 0 0 0 0
856 2 -0.42 19.5692 46.00015093195438 0 0 0 0
857 1 0.42 20.967 46.00015093195438 0 0 0 0
858 2 -0.42 21.6659 47.21068121963739 0 0 0 0
859 1 0.42 23.063699999999997 47.21068121963739 0 0 0 0
24 2 -0.42 23.7626 0 0 0 0 0
25 1 0.42 25.1604 0 0 0 0 0
26 2 -0.42 25.859299999999998 1.21053028768301 0 0 0 0
27 1 0.42 27.257099999999998 1.21053028768301 0 0 0 0
28 2 -0.42 27.956 0 0 0 0 0
29 1 0.42 29.3538 0 0 0 0 0
30 2 -0.42 30.052699999999998 1.21053028768301 0 0 0 0
31 1 0.42 31.450499999999998 1.21053028768301 0 0 0 0
32 2 -0.42 32.1494 0 0 0 0 0
33 1 0.42 33.5472 0 0 0 0 0
34 2 -0.42 34.2461 1.21053028768301 0 0 0 0
35 1 0.42 35.643899999999995 1.21053028768301 0 0 0 0
36 2 -0.42 36.3428 0 0 0 0 0
37 1 0.42 37.7406 0 0 0 0 0
38 2 -0.42 38.439499999999995 1.21053028768301 0 0 0 0
39 1 0.42 39.8373 1.21053028768301 0 0 0 0
40 2 -0.42 40.5362 0 0 0 0 0
41 1 0.42 41.934 0 0 0 0 0
42 2 -0.42 42.6329 1.21053028768301 0 0 0 0
43 1 0.42 44.030699999999996 1.21053028768301 0 0 0 0
44 2 -0.42 44.7296 0 0 0 0 0
68 2 -0.42 23.7626 2.42106057536602 0 0 0 0
69 1 0.42 25.1604 2.42106057536602 0 0 0 0
70 2 -0.42 25.859299999999998 3.63159086304903 0 0 0 0
71 1 0.42 27.257099999999998 3.63159086304903 0 0 0 0
72 2 -0.42 27.956 2.42106057536602 0 0 0 0
73 1 0.42 29.3538 2.42106057536602 0 0 0 0
74 2 -0.42 30.052699999999998 3.63159086304903 0 0 0 0
75 1 0.42 31.450499999999998 3.63159086304903 0 0 0 0
76 2 -0.42 32.1494 2.42106057536602 0 0 0 0
77 1 0.42 33.5472 2.42106057536602 0 0 0 0
78 2 -0.42 34.2461 3.63159086304903 0 0 0 0
79 1 0.42 35.643899999999995 3.63159086304903 0 0 0 0
80 2 -0.42 36.3428 2.42106057536602 0 0 0 0
81 1 0.42 37.7406 2.42106057536602 0 0 0 0
82 2 -0.42 38.439499999999995 3.63159086304903 0 0 0 0
83 1 0.42 39.8373 3.63159086304903 0 0 0 0
84 2 -0.42 40.5362 2.42106057536602 0 0 0 0
85 1 0.42 41.934 2.42106057536602 0 0 0 0
86 2 -0.42 42.6329 3.63159086304903 0 0 0 0
87 1 0.42 44.030699999999996 3.63159086304903 0 0 0 0
88 2 -0.42 44.7296 2.42106057536602 0 0 0 0
112 2 -0.42 23.7626 4.84212115073204 0 0 0 0
113 1 0.42 25.1604 4.84212115073204 0 0 0 0
114 2 -0.42 25.859299999999998 6.05265143841505 0 0 0 0
115 1 0.42 27.257099999999998 6.05265143841505 0 0 0 0
116 2 -0.42 27.956 4.84212115073204 0 0 0 0
117 1 0.42 29.3538 4.84212115073204 0 0 0 0
118 2 -0.42 30.052699999999998 6.05265143841505 0 0 0 0
119 1 0.42 31.450499999999998 6.05265143841505 0 0 0 0
120 2 -0.42 32.1494 4.84212115073204 0 0 0 0
121 1 0.42 33.5472 4.84212115073204 0 0 0 0
122 2 -0.42 34.2461 6.05265143841505 0 0 0 0
123 1 0.42 35.643899999999995 6.05265143841505 0 0 0 0
124 2 -0.42 36.3428 4.84212115073204 0 0 0 0
125 1 0.42 37.7406 4.84212115073204 0 0 0 0
126 2 -0.42 38.439499999999995 6.05265143841505 0 0 0 0
127 1 0.42 39.8373 6.05265143841505 0 0 0 0
128 2 -0.42 40.5362 4.84212115073204 0 0 0 0
129 1 0.42 41.934 4.84212115073204 0 0 0 0
130 2 -0.42 42.6329 6.05265143841505 0 0 0 0
131 1 0.42 44.030699999999996 6.05265143841505 0 0 0 0
132 2 -0.42 44.7296 4.84212115073204 0 0 0 0
156 2 -0.42 23.7626 7.263181726098059 0 0 0 0
157 1 0.42 25.1604 7.263181726098059 0 0 0 0
158 2 -0.42 25.859299999999998 8.47371201378107 0 0 0 0
159 1 0.42 27.257099999999998 8.47371201378107 0 0 0 0
160 2 -0.42 27.956 7.263181726098059 0 0 0 0
161 1 0.42 29.3538 7.263181726098059 0 0 0 0
162 2 -0.42 30.052699999999998 8.47371201378107 0 0 0 0
163 1 0.42 31.450499999999998 8.47371201378107 0 0 0 0
164 2 -0.42 32.1494 7.263181726098059 0 0 0 0
165 1 0.42 33.5472 7.263181726098059 0 0 0 0
166 2 -0.42 34.2461 8.47371201378107 0 0 0 0
167 1 0.42 35.643899999999995 8.47371201378107 0 0 0 0
168 2 -0.42 36.3428 7.263181726098059 0 0 0 0
169 1 0.42 37.7406 7.263181726098059 0 0 0 0
170 2 -0.42 38.439499999999995 8.47371201378107 0 0 0 0
171 1 0.42 39.8373 8.47371201378107 0 0 0 0
172 2 -0.42 40.5362 7.263181726098059 0 0 0 0
173 1 0.42 41.934 7.263181726098059 0 0 0 0
174 2 -0.42 42.6329 8.47371201378107 0 0 0 0
175 1 0.42 44.030699999999996 8.47371201378107 0 0 0 0
176 2 -0.42 44.7296 7.263181726098059 0 0 0 0
200 2 -0.42 23.7626 9.68424230146408 0 0 0 0
201 1 0.42 25.1604 9.68424230146408 0 0 0 0
202 2 -0.42 25.859299999999998 10.89477258914709 0 0 0 0
203 1 0.42 27.257099999999998 10.89477258914709 0 0 0 0
204 2 -0.42 27.956 9.68424230146408 0 0 0 0
205 1 0.42 29.3538 9.68424230146408 0 0 0 0
206 2 -0.42 30.052699999999998 10.89477258914709 0 0 0 0
207 1 0.42 31.450499999999998 10.89477258914709 0 0 0 0
208 2 -0.42 32.1494 9.68424230146408 0 0 0 0
209 1 0.42 33.5472 9.68424230146408 0 0 0 0
210 2 -0.42 34.2461 10.89477258914709 0 0 0 0
211 1 0.42 35.643899999999995 10.89477258914709 0 0 0 0
212 2 -0.42 36.3428 9.68424230146408 0 0 0 0
213 1 0.42 37.7406 9.68424230146408 0 0 0 0
214 2 -0.42 38.439499999999995 10.89477258914709 0 0 0 0
215 1 0.42 39.8373 10.89477258914709 0 0 0 0
216 2 -0.42 40.5362 9.68424230146408 0 0 0 0
217 1 0.42 41.934 9.68424230146408 0 0 0 0
218 2 -0.42 42.6329 10.89477258914709 0 0 0 0
219 1 0.42 44.030699999999996 10.89477258914709 0 0 0 0
220 2 -0.42 44.7296 9.68424230146408 0 0 0 0
244 2 -0.42 23.7626 12.1053028768301 0 0 0 0
245 1 0.42 25.1604 12.1053028768301 0 0 0 0
246 2 -0.42 25.859299999999998 13.31583316451311 0 0 0 0
247 1 0.42 27.257099999999998 13.31583316451311 0 0 0 0
248 2 -0.42 27.956 12.1053028768301 0 0 0 0
249 1 0.42 29.3538 12.1053028768301 0 0 0 0
250 2 -0.42 30.052699999999998 13.31583316451311 0 0 0 0
251 1 0.42 31.450499999999998 13.31583316451311 0 0 0 0
252 2 -0.42 32.1494 12.1053028768301 0 0 0 0
253 1 0.42 33.5472 12.1053028768301 0 0 0 0
254 2 -0.42 34.2461 13.31583316451311 0 0 0 0
255 1 0.42 35.643899999999995 13.31583316451311 0 0 0 0
256 2 -0.42 36.3428 12.1053028768301 0 0 0 0
257 1 0.42 37.7406 12.1053028768301 0 0 0 0
258 2 -0.42 38.439499999999995 13.31583316451311 0 0 0 0
259 1 0.42 39.8373 13.31583316451311 0 0 0 0
260 2 -0.42 40.5362 12.1053028768301 0 0 0 0
261 1 0.42 41.934 12.1053028768301 0 0 0 0
262 2 -0.42 42.6329 13.31583316451311 0 0 0 0
263 1 0.42 44.030699999999996 13.31583316451311 0 0 0 0
264 2 -0.42 44.7296 12.1053028768301 0 0 0 0
288 2 -0.42 23.7626 14.526363452196119 0 0 0 0
289 1 0.42 25.1604 14.526363452196119 0 0 0 0
290 2 -0.42 25.859299999999998 15.736893739879129 0 0 0 0
291 1 0.42 27.257099999999998 15.736893739879129 0 0 0 0
292 2 -0.42 27.956 14.526363452196119 0 0 0 0
293 1 0.42 29.3538 14.526363452196119 0 0 0 0
294 2 -0.42 30.052699999999998 15.736893739879129 0 0 0 0
295 1 0.42 31.450499999999998 15.736893739879129 0 0 0 0
296 2 -0.42 32.1494 14.526363452196119 0 0 0 0
297 1 0.42 33.5472 14.526363452196119 0 0 0 0
298 2 -0.42 34.2461 15.736893739879129 0 0 0 0
299 1 0.42 35.643899999999995 15.736893739879129 0 0 0 0
300 2 -0.42 36.3428 14.526363452196119 0 0 0 0
301 1 0.42 37.7406 14.526363452196119 0 0 0 0
302 2 -0.42 38.439499999999995 15.736893739879129 0 0 0 0
303 1 0.42 39.8373 15.736893739879129 0 0 0 0
304 2 -0.42 40.5362 14.526363452196119 0 0 0 0
305 1 0.42 41.934 14.526363452196119 0 0 0 0
306 2 -0.42 42.6329 15.736893739879129 0 0 0 0
307 1 0.42 44.030699999999996 15.736893739879129 0 0 0 0
308 2 -0.42 44.7296 14.526363452196119 0 0 0 0
332 2 -0.42 23.7626 16.94742402756214 0 0 0 0
333 1 0.42 25.1604 16.94742402756214 0 0 0 0
334 2 -0.42 25.859299999999998 18.15795431524515 0 0 0 0
335 1 0.42 27.257099999999998 18.15795431524515 0 0 0 0
336 2 -0.42 27.956 16.94742402756214 0 0 0 0
337 1 0.42 29.3538 16.94742402756214 0 0 0 0
338 2 -0.42 30.052699999999998 18.15795431524515 0 0 0 0
339 1 0.42 31.450499999999998 18.15795431524515 0 0 0 0
340 2 -0.42 32.1494 16.94742402756214 0 0 0 0
341 1 0.42 33.5472 16.94742402756214 0 0 0 0
342 2 -0.42 34.2461 18.15795431524515 0 0 0 0
343 1 0.42 35.643899999999995 18.15795431524515 0 0 0 0
344 2 -0.42 36.3428 16.94742402756214 0 0 0 0
345 1 0.42 37.7406 16.94742402756214 0 0 0 0
346 2 -0.42 38.439499999999995 18.15795431524515 0 0 0 0
347 1 0.42 39.8373 18.15795431524515 0 0 0 0
348 2 -0.42 40.5362 16.94742402756214 0 0 0 0
349 1 0.42 41.934 16.94742402756214 0 0 0 0
350 2 -0.42 42.6329 18.15795431524515 0 0 0 0
351 1 0.42 44.030699999999996 18.15795431524515 0 0 0 0
352 2 -0.42 44.7296 16.94742402756214 0 0 0 0
376 2 -0.42 23.7626 19.36848460292816 0 0 0 0
377 1 0.42 25.1604 19.36848460292816 0 0 0 0
378 2 -0.42 25.859299999999998 20.57901489061117 0 0 0 0
379 1 0.42 27.257099999999998 20.57901489061117 0 0 0 0
380 2 -0.42 27.956 19.36848460292816 0 0 0 0
381 1 0.42 29.3538 19.36848460292816 0 0 0 0
382 2 -0.42 30.052699999999998 20.57901489061117 0 0 0 0
383 1 0.42 31.450499999999998 20.57901489061117 0 0 0 0
384 2 -0.42 32.1494 19.36848460292816 0 0 0 0
385 1 0.42 33.5472 19.36848460292816 0 0 0 0
386 2 -0.42 34.2461 20.57901489061117 0 0 0 0
387 1 0.42 35.643899999999995 20.57901489061117 0 0 0 0
388 2 -0.42 36.3428 19.36848460292816 0 0 0 0
389 1 0.42 37.7406 19.36848460292816 0 0 0 0
390 2 -0.42 38.439499999999995 20.57901489061117 0 0 0 0
391 1 0.42 39.8373 20.57901489061117 0 0 0 0
392 2 -0.42 40.5362 19.36848460292816 0 0 0 0
393 1 0.42 41.934 19.36848460292816 0 0 0 0
394 2 -0.42 42.6329 20.57901489061117 0 0 0 0
395 1 0.42 44.030699999999996 20.57901489061117 0 0 0 0
396 2 -0.42 44.7296 19.36848460292816 0 0 0 0
420 2 -0.42 23.7626 21.78954517829418 0 0 0 0
421 1 0.42 25.1604 21.78954517829418 0 0 0 0
422 2 -0.42 25.859299999999998 23.00007546597719 0 0 0 0
423 1 0.42 27.257099999999998 23.00007546597719 0 0 0 0
424 2 -0.42 27.956 21.78954517829418 0 0 0 0
425 1 0.42 29.3538 21.78954517829418 0 0 0 0
426 2 -0.42 30.052699999999998 23.00007546597719 0 0 0 0
427 1 0.42 31.450499999999998 23.00007546597719 0 0 0 0
428 2 -0.42 32.1494 21.78954517829418 0 0 0 0
429 1 0.42 33.5472 21.78954517829418 0 0 0 0
430 2 -0.42 34.2461 23.00007546597719 0 0 0 0
431 1 0.42 35.643899999999995 23.00007546597719 0 0 0 0
432 2 -0.42 36.3428 21.78954517829418 0 0 0 0
433 1 0.42 37.7406 21.78954517829418 0 0 0 0
434 2 -0.42 38.439499999999995 23.00007546597719 0 0 0 0
435 1 0.42 39.8373 23.00007546597719 0 0 0 0
436 2 -0.42 40.5362 21.78954517829418 0 0 0 0
437 1 0.42 41.934 21.78954517829418 0 0 0 0
438 2 -0.42 42.6329 23.00007546597719 0 0 0 0
439 1 0.42 44.030699999999996 23.00007546597719 0 0 0 0
440 2 -0.42 44.7296 21.78954517829418 0 0 0 0
464 2 -0.42 23.7626 24.2106057536602 0 0 0 0
465 1 0.42 25.1604 24.2106057536602 0 0 0 0
466 2 -0.42 25.859299999999998 25.42113604134321 0 0 0 0
467 1 0.42 27.257099999999998 25.42113604134321 0 0 0 0
468 2 -0.42 27.956 24.2106057536602 0 0 0 0
469 1 0.42 29.3538 24.2106057536602 0 0 0 0
470 2 -0.42 30.052699999999998 25.42113604134321 0 0 0 0
471 1 0.42 31.450499999999998 25.42113604134321 0 0 0 0
472 2 -0.42 32.1494 24.2106057536602 0 0 0 0
473 1 0.42 33.5472 24.2106057536602 0 0 0 0
474 2 -0.42 34.2461 25.42113604134321 0 0 0 0
475 1 0.42 35.643899999999995 25.42113604134321 0 0 0 0
476 2 -0.42 36.3428 24.2106057536602 0 0 0 0
477 1 0.42 37.7406 24.2106057536602 0 0 0 0
478 2 -0.42 38.439499999999995 25.42113604134321 0 0 0 0
479 1 0.42 39.8373 25.42113604134321 0 0 0 0
480 2 -0.42 40.5362 24.2106057536602 0 0 0 0
481 1 0.42 41.934 24.2106057536602 0 0 0 0
482 2 -0.42 42.6329 25.42113604134321 0 0 0 0
483 1 0.42 44.030699999999996 25.42113604134321 0 0 0 0
484 2 -0.42 44.7296 24.2106057536602 0 0 0 0
508 2 -0.42 23.7626 26.63166632902622 0 0 0 0
509 1 0.42 25.1604 26.63166632902622 0 0 0 0
512 2 -0.42 27.956 26.63166632902622 0 0 0 0
513 1 0.42 29.3538 26.63166632902622 0 0 0 0
516 2 -0.42 32.1494 26.63166632902622 0 0 0 0
517 1 0.42 33.5472 26.63166632902622 0 0 0 0
520 2 -0.42 36.3428 26.63166632902622 0 0 0 0
521 1 0.42 37.7406 26.63166632902622 0 0 0 0
524 2 -0.42 40.5362 26.63166632902622 0 0 0 0
525 1 0.42 41.934 26.63166632902622 0 0 0 0
528 2 -0.42 44.7296 26.63166632902622 0 0 0 0
510 2 -0.42 25.859299999999998 27.84219661670923 0 0 0 0
511 1 0.42 27.257099999999998 27.84219661670923 0 0 0 0
514 2 -0.42 30.052699999999998 27.84219661670923 0 0 0 0
515 1 0.42 31.450499999999998 27.84219661670923 0 0 0 0
518 2 -0.42 34.2461 27.84219661670923 0 0 0 0
519 1 0.42 35.643899999999995 27.84219661670923 0 0 0 0
522 2 -0.42 38.439499999999995 27.84219661670923 0 0 0 0
523 1 0.42 39.8373 27.84219661670923 0 0 0 0
526 2 -0.42 42.6329 27.84219661670923 0 0 0 0
527 1 0.42 44.030699999999996 27.84219661670923 0 0 0 0
552 2 -0.42 23.7626 29.052726904392237 0 0 0 0
553 1 0.42 25.1604 29.052726904392237 0 0 0 0
554 2 -0.42 25.859299999999998 30.263257192075248 0 0 0 0
555 1 0.42 27.257099999999998 30.263257192075248 0 0 0 0
556 2 -0.42 27.956 29.052726904392237 0 0 0 0
557 1 0.42 29.3538 29.052726904392237 0 0 0 0
558 2 -0.42 30.052699999999998 30.263257192075248 0 0 0 0
559 1 0.42 31.450499999999998 30.263257192075248 0 0 0 0
560 2 -0.42 32.1494 29.052726904392237 0 0 0 0
561 1 0.42 33.5472 29.052726904392237 0 0 0 0
562 2 -0.42 34.2461 30.263257192075248 0 0 0 0
563 1 0.42 35.643899999999995 30.263257192075248 0 0 0 0
564 2 -0.42 36.3428 29.052726904392237 0 0 0 0
565 1 0.42 37.7406 29.052726904392237 0 0 0 0
566 2 -0.42 38.439499999999995 30.263257192075248 0 0 0 0
567 1 0.42 39.8373 30.263257192075248 0 0 0 0
568 2 -0.42 40.5362 29.052726904392237 0 0 0 0
569 1 0.42 41.934 29.052726904392237 0 0 0 0
570 2 -0.42 42.6329 30.263257192075248 0 0 0 0
571 1 0.42 44.030699999999996 30.263257192075248 0 0 0 0
572 2 -0.42 44.7296 29.052726904392237 0 0 0 0
596 2 -0.42 23.7626 31.473787479758258 0 0 0 0
597 1 0.42 25.1604 31.473787479758258 0 0 0 0
598 2 -0.42 25.859299999999998 32.68431776744127 0 0 0 0
599 1 0.42 27.257099999999998 32.68431776744127 0 0 0 0
600 2 -0.42 27.956 31.473787479758258 0 0 0 0
601 1 0.42 29.3538 31.473787479758258 0 0 0 0
602 2 -0.42 30.052699999999998 32.68431776744127 0 0 0 0
603 1 0.42 31.450499999999998 32.68431776744127 0 0 0 0
604 2 -0.42 32.1494 31.473787479758258 0 0 0 0
605 1 0.42 33.5472 31.473787479758258 0 0 0 0
606 2 -0.42 34.2461 32.68431776744127 0 0 0 0
607 1 0.42 35.643899999999995 32.68431776744127 0 0 0 0
608 2 -0.42 36.3428 31.473787479758258 0 0 0 0
609 1 0.42 37.7406 31.473787479758258 0 0 0 0
610 2 -0.42 38.439499999999995 32.68431776744127 0 0 0 0
611 1 0.42 39.8373 32.68431776744127 0 0 0 0
612 2 -0.42 40.5362 31.473787479758258 0 0 0 0
613 1 0.42 41.934 31.473787479758258 0 0 0 0
614 2 -0.42 42.6329 32.68431776744127 0 0 0 0
615 1 0.42 44.030699999999996 32.68431776744127 0 0 0 0
616 2 -0.42 44.7296 31.473787479758258 0 0 0 0
640 2 -0.42 23.7626 33.89484805512428 0 0 0 0
641 1 0.42 25.1604 33.89484805512428 0 0 0 0
644 2 -0.42 27.956 33.89484805512428 0 0 0 0
645 1 0.42 29.3538 33.89484805512428 0 0 0 0
648 2 -0.42 32.1494 33.89484805512428 0 0 0 0
649 1 0.42 33.5472 33.89484805512428 0 0 0 0
652 2 -0.42 36.3428 33.89484805512428 0 0 0 0
653 1 0.42 37.7406 33.89484805512428 0 0 0 0
656 2 -0.42 40.5362 33.89484805512428 0 0 0 0
657 1 0.42 41.934 33.89484805512428 0 0 0 0
660 2 -0.42 44.7296 33.89484805512428 0 0 0 0
642 2 -0.42 25.859299999999998 35.10537834280729 0 0 0 0
643 1 0.42 27.257099999999998 35.10537834280729 0 0 0 0
646 2 -0.42 30.052699999999998 35.10537834280729 0 0 0 0
647 1 0.42 31.450499999999998 35.10537834280729 0 0 0 0
650 2 -0.42 34.2461 35.10537834280729 0 0 0 0
651 1 0.42 35.643899999999995 35.10537834280729 0 0 0 0
654 2 -0.42 38.439499999999995 35.10537834280729 0 0 0 0
655 1 0.42 39.8373 35.10537834280729 0 0 0 0
658 2 -0.42 42.6329 35.10537834280729 0 0 0 0
659 1 0.42 44.030699999999996 35.10537834280729 0 0 0 0
684 2 -0.42 23.7626 36.3159086304903 0 0 0 0
685 1 0.42 25.1604 36.3159086304903 0 0 0 0
686 2 -0.42 25.859299999999998 37.52643891817331 0 0 0 0
687 1 0.42 27.257099999999998 37.52643891817331 0 0 0 0
688 2 -0.42 27.956 36.3159086304903 0 0 0 0
689 1 0.42 29.3538 36.3159086304903 0 0 0 0
690 2 -0.42 30.052699999999998 37.52643891817331 0 0 0 0
691 1 0.42 31.450499999999998 37.52643891817331 0 0 0 0
692 2 -0.42 32.1494 36.3159086304903 0 0 0 0
693 1 0.42 33.5472 36.3159086304903 0 0 0 0
694 2 -0.42 34.2461 37.52643891817331 0 0 0 0
695 1 0.42 35.643899999999995 37.52643891817331 0 0 0 0
696 2 -0.42 36.3428 36.3159086304903 0 0 0 0
697 1 0.42 37.7406 36.3159086304903 0 0 0 0
698 2 -0.42 38.439499999999995 37.52643891817331 0 0 0 0
699 1 0.42 39.8373 37.52643891817331 0 0 0 0
700 2 -0.42 40.5362 36.3159086304903 0 0 0 0
701 1 0.42 41.934 36.3159086304903 0 0 0 0
702 2 -0.42 42.6329 37.52643891817331 0 0 0 0
703 1 0.42 44.030699999999996 37.52643891817331 0 0 0 0
704 2 -0.42 44.7296 36.3159086304903 0 0 0 0
728 2 -0.42 23.7626 38.73696920585632 0 0 0 0
729 1 0.42 25.1604 38.73696920585632 0 0 0 0
730 2 -0.42 25.859299999999998 39.947499493539325 0 0 0 0
731 1 0.42 27.257099999999998 39.947499493539325 0 0 0 0
732 2 -0.42 27.956 38.73696920585632 0 0 0 0
733 1 0.42 29.3538 38.73696920585632 0 0 0 0
734 2 -0.42 30.052699999999998 39.947499493539325 0 0 0 0
735 1 0.42 31.450499999999998 39.947499493539325 0 0 0 0
736 2 -0.42 32.1494 38.73696920585632 0 0 0 0
737 1 0.42 33.5472 38.73696920585632 0 0 0 0
738 2 -0.42 34.2461 39.947499493539325 0 0 0 0
739 1 0.42 35.643899999999995 39.947499493539325 0 0 0 0
740 2 -0.42 36.3428 38.73696920585632 0 0 0 0
741 1 0.42 37.7406 38.73696920585632 0 0 0 0
742 2 -0.42 38.439499999999995 39.947499493539325 0 0 0 0
743 1 0.42 39.8373 39.947499493539325 0 0 0 0
744 2 -0.42 40.5362 38.73696920585632 0 0 0 0
745 1 0.42 41.934 38.73696920585632 0 0 0 0
746 2 -0.42 42.6329 39.947499493539325 0 0 0 0
747 1 0.42 44.030699999999996 39.947499493539325 0 0 0 0
748 2 -0.42 44.7296 38.73696920585632 0 0 0 0
772 2 -0.42 23.7626 41.15802978122234 0 0 0 0
773 1 0.42 25.1604 41.15802978122234 0 0 0 0
776 2 -0.42 27.956 41.15802978122234 0 0 0 0
777 1 0.42 29.3538 41.15802978122234 0 0 0 0
780 2 -0.42 32.1494 41.15802978122234 0 0 0 0
781 1 0.42 33.5472 41.15802978122234 0 0 0 0
784 2 -0.42 36.3428 41.15802978122234 0 0 0 0
785 1 0.42 37.7406 41.15802978122234 0 0 0 0
788 2 -0.42 40.5362 41.15802978122234 0 0 0 0
789 1 0.42 41.934 41.15802978122234 0 0 0 0
792 2 -0.42 44.7296 41.15802978122234 0 0 0 0
774 2 -0.42 25.859299999999998 42.368560068905346 0 0 0 0
775 1 0.42 27.257099999999998 42.368560068905346 0 0 0 0
778 2 -0.42 30.052699999999998 42.368560068905346 0 0 0 0
779 1 0.42 31.450499999999998 42.368560068905346 0 0 0 0
782 2 -0.42 34.2461 42.368560068905346 0 0 0 0
783 1 0.42 35.643899999999995 42.368560068905346 0 0 0 0
786 2 -0.42 38.439499999999995 42.368560068905346 0 0 0 0
787 1 0.42 39.8373 42.368560068905346 0 0 0 0
790 2 -0.42 42.6329 42.368560068905346 0 0 0 0
791 1 0.42 44.030699999999996 42.368560068905346 0 0 0 0
816 2 -0.42 23.7626 43.57909035658836 0 0 0 0
817 1 0.42 25.1604 43.57909035658836 0 0 0 0
818 2 -0.42 25.859299999999998 44.789620644271366 0 0 0 0
819 1 0.42 27.257099999999998 44.789620644271366 0 0 0 0
820 2 -0.42 27.956 43.57909035658836 0 0 0 0
821 1 0.42 29.3538 43.57909035658836 0 0 0 0
822 2 -0.42 30.052699999999998 44.789620644271366 0 0 0 0
823 1 0.42 31.450499999999998 44.789620644271366 0 0 0 0
824 2 -0.42 32.1494 43.57909035658836 0 0 0 0
825 1 0.42 33.5472 43.57909035658836 0 0 0 0
826 2 -0.42 34.2461 44.789620644271366 0 0 0 0
827 1 0.42 35.643899999999995 44.789620644271366 0 0 0 0
828 2 -0.42 36.3428 43.57909035658836 0 0 0 0
829 1 0.42 37.7406 43.57909035658836 0 0 0 0
830 2 -0.42 38.439499999999995 44.789620644271366 0 0 0 0
831 1 0.42 39.8373 44.789620644271366 0 0 0 0
832 2 -0.42 40.5362 43.57909035658836 0 0 0 0
833 1 0.42 41.934 43.57909035658836 0 0 0 0
834 2 -0.42 42.6329 44.789620644271366 0 0 0 0
835 1 0.42 44.030699999999996 44.789620644271366 0 0 0 0
836 2 -0.42 44.7296 43.57909035658836 0 0 0 0
860 2 -0.42 23.7626 46.00015093195438 0 0 0 0
861 1 0.42 25.1604 46.00015093195438 0 0 0 0
862 2 -0.42 25.859299999999998 47.21068121963739 0 0 0 0
863 1 0.42 27.257099999999998 47.21068121963739 0 0 0 0
864 2 -0.42 27.956 46.00015093195438 0 0 0 0
865 1 0.42 29.3538 46.00015093195438 0 0 0 0
866 2 -0.42 30.052699999999998 47.21068121963739 0 0 0 0
867 1 0.42 31.450499999999998 47.21068121963739 0 0 0 0
868 2 -0.42 32.1494 46.00015093195438 0 0 0 0
869 1 0.42 33.5472 46.00015093195438 0 0 0 0
870 2 -0.42 34.2461 47.21068121963739 0 0 0 0
871 1 0.42 35.643899999999995 47.21068121963739 0 0 0 0
872 2 -0.42 36.3428 46.00015093195438 0 0 0 0
873 1 0.42 37.7406 46.00015093195438 0 0 0 0
874 2 -0.42 38.439499999999995 47.21068121963739 0 0 0 0
875 1 0.42 39.8373 47.21068121963739 0 0 0 0
876 2 -0.42 40.5362 46.00015093195438 0 0 0 0
877 1 0.42 41.934 46.00015093195438 0 0 0 0
878 2 -0.42 42.6329 47.21068121963739 0 0 0 0
879 1 0.42 44.030699999999996 47.21068121963739 0 0 0 0
880 2 -0.42 44.7296 46.00015093195438 0 0 0 0

Velocities

1 -0.09126637560817696 1.5344250066590237 4.791009763694757
2 5.729849253938346 -5.967569477532935 3.6863659738800494
3 -7.921815936944758 3.336210827028309 -2.4543261785454313
4 2.393208477263833 6.361647747057174 -1.1845728737803753
5 -6.642757983206068 -4.520651833218706 -2.0201308294064173
6 6.337005513028619 -1.2056947666932756 2.47679507785913
7 0.9933636451090196 8.00911598766771 -6.298351611438105
8 6.558609700783853 -6.557102265813668 -6.135191814564316
9 3.829790090399311 -0.16627416683500823 -3.5207360478248324
10 -2.7600910427454703 -0.826049361853352 -0.6097359317542792
11 -2.8122474419089256 6.877229947440832 -6.895463124844809
12 -3.9910214567806293 -2.735005865678363 6.639616180057173
13 0.7548123529866122 -0.7749538792530155 4.535176180080716
14 4.1200891925563825 -5.4251472122144255 -3.61686058887237
15 -3.883219462284681 1.349836600205482 4.879068207327884
16 -3.1137151022234675 -5.1120081010351175 -5.518771822039708
17 7.216834290288428 3.8097812690465624 4.735395033103323
18 5.3763180623946845 5.652891582977575 -6.4110278899288025
19 2.6716056263525663 -1.8843319042732636 6.668674500910384
20 -0.7222967066050805 5.4637821539898335 -0.05257002345618748
21 5.061855020500137 2.2746142581931923 2.6326068789170525
22 2.7764027772405253 5.53904359186649 2.4546347659665693
23 -5.540334681302146 7.087940775475165 7.508120316678052
45 4.43586200120478 -3.0652122170822556 -0.9369116399611269
46 5.599440970209434 -2.8645647304610455 -4.672371698255418
47 3.746477844788564 3.878629068665205 2.5180274063078376
48 -3.3856992492109836 -0.10685820743171918 -6.495047792073531
49 -1.253360755210372 -0.5825222984097953 5.637227358185435
50 -1.8255465034833194 -2.355305890405726 4.47025043306553
51 5.249759100188829 -7.40198529504999 2.5262358079645217
52 -0.30501124392795187 3.787812412529502 6.6596564951025865
53 -1.604125690043023 -1.2045111850267773 2.2797976355350285
54 -0.41915855409627994 -6.722768753953871 6.897885339059829
55 6.584225367584399 1.5778232566086596 -0.6090415268285553
56 0.5783963441978036 3.5351237733410494 6.015872139387069
57 -8.03423109982358 8.11134233401201 -2.700504388968979
58 2.6892399815735524 3.8439564029429953 3.4628671720453683
59 7.553336170035099 -6.6846825696077055 7.60435593367928
60 -2.6109210380942787 -4.203755969008834 -4.231275517135809
61 -4.294678085310722 -6.9675215742417285 5.599905371306236
62 3.7537479643534666 6.080854125907568 -0.7843709492656423
63 5.49364601192468 -6.914748344179232 -5.522508094418344
64 -3.006973278338131 -4.300727474297097 1.3657158167050623
65 -7.411257887209416 -4.645191495096518 -5.076270480013245
66 6.982967983202327 -4.124898032995835 1.3399197405476868
67 -2.2807269225288147 8.30798378774118 3.841819210518798
89 -2.369376141206955 4.298207145570998 0.3401592989108018
90 6.274186380977575 4.5666964725419525 -0.1581810122343293
91 6.938164927501912 6.569440064881229 -3.7014213592183856
92 3.9380395836696307 4.822999673087467 3.853182362375941
93 6.787112661518661 -1.207373869391117 3.1529574036864383
94 -6.813787986658931 -4.111144406819909 2.9677000423378006
95 -1.769679219007259 -7.7725726426856925 -4.675739195553712
96 6.376044455083448 -4.975263307615667 -2.54317719138635
97 -5.421330288702585 -1.2433638674927707 2.4333751576472857
98 -3.285092921564016 -1.995743867765055 -6.209151371192312
99 -2.781764860828138 -3.3225192102041516 1.6272576587356888
100 -5.070452218385843 2.441544386210373 2.9258880218121486
101 2.2578837469880617 0.7460565203448813 -2.689486931659762
102 3.69541914589568 1.2484153631646389 5.139019075475302
103 5.206307845028644 -2.892792578216975 6.728501872125058
104 2.2195968173603453 0.6249304936388612 -1.491631105915325
105 5.139838117223904 6.635297438414512 -7.192584323011944
106 5.75660425731756 -1.0094689297559067 0.9590982022648822
107 0.3310554870136481 -3.514932450985997 0.8334478921560026
108 0.30183407258287265 3.32367519054318 -4.4401173981548805
109 -5.539880460636167 -1.6067377846123931 2.166169785521681
110 -0.05502894148021851 1.9829604489232864 -0.9133604952665846
111 5.8182275437121 -5.480551522332122 -2.234096075479206
133 3.9567388470804166 -5.606774036914543 -0.9164105460394476
134 2.581266839235584 -3.3165050298638774 2.7288827141475456
135 -1.0642327653645238 -6.017629133534492 0.9096995867175007
136 4.939065045249092 1.6827072011851798 2.37743118449293
137 1.9109641649160283 -0.5621496913691731 5.135562732689411
138 -1.4807977313517782 -3.780417309974722 -4.590293077963785
139 -4.412614838458506 2.978834041545157 0.09966810428493299
140 6.260659126236755 6.743540880565019 4.81529498375617
141 2.0926779948592964 0.023080336455431418 -5.148831419711253
142 -3.6800039657334653 2.741778622141464 -0.6844350984445561
143 -2.62079374675112 7.8727217039875805 3.678828918034549
144 6.2001008560976905 -6.868115434781023 2.806253320291175
145 -4.5396953592041065 6.204775279652349 6.9932835427898645
146 1.1076528863972916 4.485003586183016 4.005966975145491
147 1.5831013665177192 8.170466730370043 -5.051457684805147
148 6.405903199419581 -5.234942206136856 -5.907542733922274
149 5.151458842414301 5.999642195018506 4.691006967303972
150 6.453108601051879 -0.8611204743183817 -1.880797611683911
151 -6.8731550498481155 -6.886776397362598 7.3965738431241945
152 -7.07337141865375 -5.87100404066105 5.610171193317296
153 4.380486535419018 -3.021043965890813 6.604447940537741
154 -0.26098331913656236 -2.205453838847925 -1.7898822420341103
155 3.6402820157077174 -1.1192533341571662 -1.7228486006340613
177 -5.182679145134916 -7.109856053248389 -2.6159504862262626
178 7.107156226269264 2.9965812326500316 6.797688379840715
179 -5.847974877937943 -3.5310114306729883 -8.145719015879441
180 -4.836159005525842 -4.829244586799301 -1.5021575012311428
181 -0.5934301214643837 3.6400049865728397 -7.489423485707889
182 2.217645882639668 -3.473252502165452 -6.483202060185185
183 -0.3435320645211194 7.183967679232331 4.884527736410718
184 -2.753288676981217 -1.2633953805369826 -6.142997163371655
185 8.059429912749446 8.274898765637934 2.9598726900687957
186 -3.5947769741677424 0.5929831359655421 6.701488716508217
187 -6.024822219738205 -3.969001705007513 -5.175112522362041
188 5.533835526240728 -0.8849526094345397 -0.7510165441884165
189 7.250182475544323 -7.214054397203556 -6.699630968144003
190 6.70670398853575 0.6767940551971843 -4.901646061270925
191 -7.75456813455776 5.722395114636742 -1.3025644465726893
192 0.9756306164880503 -5.19266897226619 1.6448659920577033
193 6.369210054150148 -3.527419835320438 3.231928194834912
194 0.9925178841297496 6.0654581628454185 -1.3237304432029258
195 -7.039173946464226 -4.947506686847594 -7.841692054652029
196 -6.994701997466457 -3.4681774586032486 -7.260475474109892
197 2.8129406404473696 5.862282472867087 -1.5579368901775281
198 3.0494388195869946 3.867510568873738 -2.338741994722301
199 7.905533918360813 1.689837401727574 4.204686768580715
221 3.53741718126487 0.8805952642831376 5.133571976815107
222 0.23093050026796344 2.3311747608409537 -1.4754984386714445
223 6.117025884224766 3.492212461199751 6.862692428629455
224 6.04763156142888 -1.5592224444595333 -0.18927623212605335
225 -3.7978850956449137 -1.3668090869684144 1.4427636671005941
226 5.116508405928834 0.09087726451332535 3.0141024790315942
227 3.9978834669427084 0.10270967419412175 -5.777306088065969
228 2.7356709226174973 -4.798580973671887 -2.5799950520319257
229 7.944631393503381 5.6504903948047485 -1.4765589659736214
230 2.2915758928086234 5.34782365857474 2.033023649580618
231 -5.046938161510032 4.590479975149959 -2.3887472211345755
232 -4.758462880638707 -4.439020494153992 1.0602563065273138
233 3.391992333483504 6.039972583068092 -3.284303397767552
234 5.095485649409755 5.401119131186199 -6.002039090318436
235 -7.974194209375419 4.767911917812054 7.874629737980475
236 -6.06277733998846 -5.993021851482752 6.2759698187170265
237 -3.287112607099088 -5.744138321270285 -7.242031371561999
238 4.084829658788241 4.482582693754925 6.354793218172658
239 -8.017952789826085 4.111888477506268 4.00524142969724
240 -4.439331569873268 -6.049152274440149 -4.644801050946231
241 1.822371760889046 -3.6170424915347787 -0.8096478250532146
242 -2.0108548269429205 -3.8396095490468674 4.756934748387495
243 -5.521256736604042 1.155651452490662 6.9623492046334325
265 5.776421252149627 -5.981986205126641 -4.203918510966449
266 5.618979162455808 -4.434701473869051 1.922088098963528
267 -3.0235278839638915 -0.7710910456461704 4.142759437527614
268 -4.487789192257618 -2.7778713313659296 3.479155734770732
269 0.3659133056797155 -5.495124685653222 -2.233772615192771
270 5.987243268601655 2.0315183475673324 -2.4992983416073784
271 1.9912158329462928 -7.059884442445384 4.489882326631586
272 3.9274131258600407 -1.6288156049293094 6.496726791987141
273 7.733093749576084 -6.320622466543347 3.0755231857646605
274 -4.0800944179981435 6.502519819406419 -0.5697434066257548
275 -2.4152141971986443 1.3499688737161268 7.10218910073148
276 3.846667930651476 4.117589119429507 -2.5259520065774534
277 1.276883748829957 5.132033610634759 4.380936058620071
278 -6.859816673672236 -3.0535119645526807 4.412095787075874
279 -1.4638705953332967 4.720663380317456 -2.45080586003174
280 5.367073314046625 -6.2677096297359896 -5.467634116042386
281 -4.336893348075973 1.986230031071822 5.40219373089454
282 4.121698943499311 7.284348458283754 -0.934809213793497
283 -4.583062487316592 -4.200874006039147 0.3220291141422381
284 -2.9527032735922574 4.043171368900196 -5.198891976484592
285 5.161859641772651 1.1894587855932028 3.655411396981615
286 6.000622877889686 -2.626803185497516 3.3123317108231825
287 -3.273813652237794 5.497447220873713 6.271733100976778
309 -4.949750153941878 5.15279385296928 -5.93450747552268
310 1.353229419675371 0.3603313247658417 -1.4774498877663809
311 -5.153433073498886 -5.434088862550371 -5.116907197272038
312 1.8890015539696325 -3.946939944007625 -5.946459942962615
313 -0.507059488131228 2.011128321988918 -0.6801284487247953
314 -2.2250352180275907 -2.8267472535857148 -0.2799286563269032
315 0.40019224905037626 -0.8757087170079256 -6.988556766936772
316 -0.11716784363502339 4.8423871269553125 -0.2504143089375863
317 -0.1964916337378717 -3.4798367133645343 2.851959540829688
318 4.971975431777951 -4.670375073513917 0.3383048060678035
319 -6.290018860904476 -3.3760247424934033 0.44186759935065484
320 -6.0482442764862245 -5.610826833726555 3.004017810960629
321 -6.076989398974883 1.0105426970357485 1.105524960941213
322 1.016609577840974 -5.047510024683076 2.581265378256942
323 5.289896978423371 -2.2840428283589502 -0.15029110140359528
324 0.017695669354593956 4.890478428025091 4.667130841307875
325 3.9386627472440905 0.8347565847901915 2.1748545193279583
326 -5.25282705876814 7.223525525888148 -4.649055647525322
327 0.017020174847345013 -7.315234325949849 7.289662379069714
328 5.4139868383479675 -6.799470199268099 -5.465936026330673
329 7.90084695295788 4.559836340652929 5.104177169714503
330 -6.34762673536572 -2.0302752346281245 1.5912912810256445
331 1.598829961309101 -5.068050595295637 7.272500309265641
353 3.057753808923057 5.58835115696456 -0.8097505811018947
354 -5.99735884100194 3.230970139162698 1.1352226271832049
355 -2.3213766724846194 -5.412986698209259 6.643097726570184
356 2.8466823467778317 -3.956070661594706 -1.6049577286138739
357 7.980297680397362 0.9294583734909887 -6.391181520101884
358 0.5670759287114342 -0.2344497509994838 0.9121435614237731
359 -6.870085416292055 -4.28174110022511 -3.5237035336261244
360 0.0735073739969954 -3.8910378497795874 1.136789972310628
361 3.836649121279982 0.8121007921818924 -3.039450104704852
362 -4.164923718099701 0.9897273164702521 4.082311758692915
363 -1.5026302848678592 6.437173100999842 -6.000203438267051
364 7.0444626482986274 -3.4664285260021495 -6.557342102056302
365 -3.365725364056039 -4.358755747422736 -7.936420821187719
366 -6.292305483238856 -4.709238513743762 -7.288055907890363
367 -7.296509932394589 -2.8706195200516693 3.8294887127873203
368 2.8487522422361473 2.1414854516987054 -4.863086328979982
369 -7.561736053004454 -2.7731035660294965 -6.42516664991053
370 5.634066340638321 5.260498975300177 -2.3829085600768627
371 -6.646853648910491 8.287321138560785 -0.5312544071951171
372 -3.1475736207949168 -0.3485926388852249 4.821476125699855
373 4.209314248837436 -6.050972939074237 -4.321620150914495
374 -4.920679200098875 -5.146900471785356 -3.7857215014832746
375 -1.401909663645364 1.0570634945079105 -0.8001659981151332
397 4.870732001515268 6.8367969402086946 -0.6448733609100369
398 -1.235323859159505 4.715073986784999 -2.509685481782989
399 5.564327642796296 5.360320604552131 3.9405989255528797
400 -3.4907541259334813 -1.2567947229641587 4.375135671886946
401 6.941936881998662 4.64961811895035 -4.508647253273703
402 -3.892172699214196 -5.472195014918018 -5.341917125957981
403 -4.205771885266794 1.3613408827342333 2.2863611496307366
404 1.943996752938177 2.2397097722754995 -3.74959953576818
405 7.248623631156862 -0.7560214308544158 -3.8424694486796995
406 -1.4916054292654146 1.0672534106040685 1.614828980299925
407 -2.631738946347549 3.533170312020772 -6.895616430117377
408 -5.779952788900679 -0.9505611596893544 1.1763882262297998
409 -1.8026824559943608 -7.279956716053087 -3.9638639345015507
410 -4.638904987886901 -3.4118968383623223 6.18466113980454
411 6.567910567556 4.963989163732713 4.934312699831234
412 -6.082715234434734 3.2049084454822996 -6.516010239880829
413 -4.256307141206445 1.111089551499289 -7.195082563287689
414 -3.2589363692540996 7.249777985616655 6.208382190121382
415 -4.0303155519606575 -5.250583310500022 -7.075734302141025
416 0.6770091709841431 -3.1673539969385884 -0.9676816902714723
417 0.9523065967586865 3.7714466781070595 -2.7322284522972367
418 -1.8821987090247358 6.645500204958935 6.788329213280938
419 -0.12792439447768972 5.916183008410218 6.2662728571486035
441 1.8642705207294517 -1.5614934614948524 -4.864460358432813
442 2.5970281082241584 3.3625511694806045 3.396981374065137
443 4.48589476075305 5.068347557419172 -4.6208162776256785
444 -2.6960978347485787 -1.2113346065518547 -6.2384628613983475
445 0.8934504352037701 -5.698142983284591 -1.6503546264918294
446 1.4585551177851424 6.0619628962352525 -2.686322650994785
447 -4.6409422459025 2.739941032715354 1.901130829344129
448 -6.793264026206676 -3.459063341276332 2.464610166248589
449 6.504902442695326 7.356178688493962 -7.285261793221974
450 -5.559337569160027 5.767622774731332 -0.432737344483833
451 -3.804746392420398 -2.383266940112372 -2.275877434595058
452 -5.111783799993539 -3.6301031833280177 -3.084329733867644
453 4.095150187742767 1.9879568406150743 1.7671511379235
454 6.383073499571324 -1.6028200183614265 -1.3086910083038752
455 -3.4899280767299716 -1.751790128410864 -2.7425437483429174
456 -4.839144781092715 2.371179170018908 -3.364049468488692
457 -6.609485682615398 -0.4911157746834806 7.002734065402624
458 4.061889669082703 6.261063250255366 1.0712238011505786
459 -6.5901849578765725 -2.679140953276635 5.242997740104544
460 0.7658064476395725 -2.6927216896643746 0.03034108151224792
461 2.3965556123282252 -3.6093396353426983 -1.9778661503646864
462 6.52378439241261 -3.6969345414795476 6.9825195710740235
463 -6.02408112006078 -7.842104719726929 2.369743082912504
485 4.072006718303461 4.906033011035434 -5.7375933844632225
488 -3.8794005993265634 -5.9953386131842965 -3.970667244532004
489 -6.412012919222006 3.694264058149969 6.360701385017857
492 0.14116861823329357 -0.009991728014815482 0.48837948147682464
493 0.5501977400629496 5.636723578286553 -4.25273008247281
496 -6.8003020421832465 7.363297986315718 6.1757731066647645
497 -6.206319740367216 -0.9187210881123279 4.896960275445532
500 -4.1097914216907645 -4.865014713841291 -0.17596874879738258
501 7.958463061756016 -6.8121406811940215 4.484127911868722
504 -3.7721790245823454 2.8791146987915184 -2.116731638347914
505 3.202717889275242 -7.3151443440732695 -7.526777514468777
486 0.8377003507268395 0.5986796037538702 2.0229038437356204
487 2.7605600793108747 7.255517284683569 -0.9098851415571767
490 -5.997141394294233 6.885596955615284 -3.361519007663322
491 3.0271684489825668 -2.268069273610169 7.056998870149851
494 -4.7497781054933235 -1.9298888988394178 -3.9949975410973937
495 -4.180146736353432 7.495321046362187 -3.7330900297824994
498 -3.9181703633196685 2.298305611095195 5.570650449586738
499 -5.4209180935420855 5.684400195016362 -3.0613320714233887
502 0.9732319223153033 -2.470756651666231 0.7437436149910324
503 -0.22839118225537816 -0.7662939714419243 3.123359122273071
506 6.624002280651883 2.2312671004013156 -2.1897014520598472
507 6.848586007619671 3.262940578613329 7.07877099419566
529 5.468026497333656 3.374732840925039 -8.165450344273205
530 5.009509468396207 -5.041712432251534 -0.3977176160031874
531 -6.084945845294205 -2.083328246214707 -6.79472469581811
532 -5.53777115913066 -4.751022971825373 -6.625609947187817
533 -3.945022252763463 7.671315788211393 -1.295981839651893
534 -7.107596198418106 7.082247979659007 2.2669038132307318
535 0.8677239597324158 2.793646686097194 6.44995609184995
536 -4.080873374351119 -6.589399605068613 -3.8242124345470763
537 4.1431180632001725 8.07454028635205 -0.7394382682738254
538 0.8867566847077095 7.389944463406542 -5.035716101865177
539 1.424165930820231 -1.4686582454667116 4.184312572372253
540 4.668318355804387 -1.20537083783384 -6.424521008923366
541 4.644678822511131 -4.165434559547732 -8.211509553119408
542 -1.6270337786325184 5.871545540431266 -3.9646023578509606
543 -8.078091425034307 5.745294711444012 -8.319407943627533
544 -3.1639029259696785 -2.229044592152884 3.396802926278494
545 -6.475023948686098 6.037635913258413 6.429582990570527
546 2.6596973035188975 -4.929827132987037 0.7864231444043713
547 6.1054429036714595 4.762241820188735 -5.778874551100875
548 -5.1876688531970565 -2.2728223440093815 -0.7508627329247077
549 6.92020986294625 -1.283554644486428 -3.5736367534797604
550 2.5401064440532433 -6.511022348460238 -6.331795930347722
551 2.3893375587784296 5.706956698851265 0.4842261381426402
573 -2.813091761459137 -7.313248732970101 -8.32477228992086
574 -4.0229586138111815 5.629556159710466 3.066989224512978
575 -4.925406961631997 6.069694675103086 6.3919386383339285
576 -3.8830718353746705 4.030139262845092 5.299916392372202
577 -1.1819932425409763 6.891396732411942 2.6029777798134894
578 -5.776857738864674 -6.314408913818509 -1.335138188750118
579 6.249807837333702 -1.8823468055323176 7.374698453583555
580 -5.945066966010601 7.019619052520516 -3.10951940953536
581 -0.25173730481067086 -1.2542087214051363 -0.21966632225656377
582 2.596762216813545 -1.1062857687167573 -5.190021926403315
583 -6.894711206744992 6.380496380486318 4.831307189818116
584 5.280065017702433 -5.366126700662635 -1.50472442250721
585 3.4857954591769396 -1.3011273278868343 -4.999951386486565
586 -5.573134823625346 3.4065818131073624 -2.5505894112960004
587 0.018353212931885972 -1.2396285322893792 -0.10190725175977763
588 -3.1031175896562515 0.8533244884102156 6.8541289237147875
589 0.3365400702018823 7.020630727652668 2.9129517948812635
590 4.846828355011766 0.7842045322178477 -7.1979006163902275
591 -0.9579275878497505 0.8180723982851814 -0.6472580859385744
592 -3.933142321668242 -5.460395089059434 6.486787224218414
593 -1.995951657551114 -6.1311339332936 3.7000693399776425
594 5.606858714632227 7.040758364910569 -6.460806752738455
595 -6.869507552285273 5.430419261748124 6.417629308105028
617 4.76975523533111 7.911878176035707 -7.697722390372252
620 3.1693480566782037 -3.5459098902968242 6.084680364738136
621 -5.7580518461910355 5.558976165038064 -4.652281093693334
624 -5.191321110839075 -6.273962824156998 4.199634668570116
625 0.39890256711424427 -6.222627724384921 0.8678600290818458
628 5.448235225886738 -5.010357927652335 -4.209330627854849
629 7.390975400917903 7.7504401355536725 5.916935192730765
632 3.1104239001174108 -4.038607722954507 2.7167294465741882
633 -4.125157947798662 0.952268573904569 1.418255087280363
636 7.064350174148665 0.834684607385383 -5.168994487074427
637 5.288316752504987 3.8146307477711217 4.5967574907470095
618 0.8382925558229973 -3.7937177724287707 1.3982492938258424
619 -1.8698257400415383 7.256438827145605 -1.7502862753062127
622 -5.7078474045110665 5.895206382239105 6.372278369067918
623 1.0925951552371158 -6.06971848916911 7.197225268594391
626 -4.340354880080503 -6.636184495724183 -1.1305061804703738
627 2.076282930449525 2.0602427858438923 -7.980364391419973
630 4.729009895637738 0.3005608021034486 -1.849434362722315
631 -1.8377743233458241 7.095344556362912 1.3133433514353547
634 -0.2723606965619389 -6.9323866720849985 -1.4812999991329825
635 -3.022204023513713 5.150266247305047 0.5703200053505966
638 -0.47062916712191416 3.291532190286572 0.46483752692458635
639 2.3802959541427313 0.7035952255042159 2.129203582146539
661 -6.601055823957248 -5.7693689459612205 -6.745242928893164
662 5.790314395615851 6.078876784414885 -5.3263725621765605
663 -7.880540267763312 -5.080524848085305 -6.437082808245478
664 6.523002670462971 -2.489746921763986 -2.8227805171004974
665 6.481366464007172 3.677351913502333 -0.2927037233666198
666 -3.9581041963412247 5.3730301015072515 -4.689942803093354
667 3.683409780166773 5.263411028313753 -8.2708848859225
668 -3.457353934867049 0.6222678653497571 -3.205659478935892
669 4.262139655310028 0.03230781289888315 2.9784775265750283
670 1.7806118686849317 -3.7626502552649783 -7.236761544870447
671 -3.2093363455119364 -4.859733282136835 -2.2229554690679887
672 3.0850963053465237 0.6481597821238738 1.5921329242363251
673 0.6155706683266208 -5.996511031892949 -3.391202574285059
674 3.6416911713750983 2.0144185164332895 -2.984391665225079
675 -1.7517641877945247 -0.5924183278782775 2.602313013418046
676 -0.4767893065634027 0.17718758838944587 4.72728470639667
677 -2.303031410196965 -7.3307040004386055 -7.77767735544443
678 6.914453311908694 6.341684147258336 -6.764260864645775
679 -2.4441989077527357 4.066897387143298 -1.0368108134844114
680 -3.022809278558285 2.1097969445208244 -6.665054657050686
681 -2.7518910222737176 -7.424638715312039 -2.648196792686942
682 0.8588337444728251 -2.8520823902856676 4.280081646951994
683 2.1163321802614368 5.688607353390743 2.3333175539752444
705 -5.252653337793329 -7.495010952693879 6.60547593443396
706 4.98128851174019 -5.946912848603058 6.5682061428228575
707 0.19487760389186273 -6.2294730306342565 0.1201549489217791
708 -0.4280217569877498 2.114852949555272 6.583279820351126
709 -2.5154443282307986 -1.3550181839531295 3.667287126582597
710 1.9663347243555291 4.688696273584417 -1.1266699972898677
711 -1.8943063307382524 4.030283317508754 4.083601980395593
712 2.0095073182368086 -1.3345281566855114 3.3578620025807755
713 -2.791653393074184 -6.231427737490743 -0.07507260165124384
714 6.829444415028643 -2.1895914118152096 6.589337205184215
715 4.218492932505664 1.2562758340129825 -0.03526104268451193
716 -2.622964550225171 -5.78082637054057 0.59389961305637
717 7.91198011537238 -4.270286477290405 -6.951039388450133
718 -0.07614363738789284 5.747977011463047 -0.6705467663345284
719 -2.846309536104484 5.902398064733515 3.185438587632965
720 4.673974682359982 -6.5586094091122735 -2.774572379591967
721 -8.170242302810461 8.19819478174362 3.7684735412626997
722 0.22501472200026434 3.3238084067959868 -2.201151837229026
723 -3.760239724516019 -5.482902958476456 7.231612526299332
724 4.002655044235608 0.5503249297032891 -7.321150994859189
725 -3.5315707904564753 0.49602787790657094 7.900565253653866
726 5.7541995977394516 1.61218282290168 -6.587543586653333
727 -2.8872008167607746 4.450786388944521 1.1233516450672507
749 4.236626265195209 -4.2233422236167435 -1.7397019688826807
752 7.032195657252811 5.546079376661211 5.940362392347186
753 -7.737925464112082 7.846747310729692 -8.32490094408274
756 -4.818652250911721 2.4950116665044084 -2.2216029970232185
757 -0.13969786987246524 3.9845655668450366 3.1573353557832897
760 -1.5341599857744566 3.132243528782233 5.92533953098756
761 5.704564184541779 -5.355089793338775 -0.009539707296693244
764 0.7717846121566442 -2.6368296424348454 6.944731092882548
765 -7.7555452750831355 5.628359597858812 2.1327385073177356
768 -6.901157961588996 5.0572949568048715 -3.3828017102282066
769 -2.4102941183622018 2.3979074117951074 1.067447229708716
750 4.244817715640093 -3.5687701319517138 -5.142102018844632
751 -3.052622361153973 0.10098961671326635 -2.0287815823941697
754 -6.399001888545171 -4.757169082877988 4.841409010007248
755 -5.538909372635192 -1.614427045435594 3.5628854755954915
758 -5.71554632460816 5.6097521562157 0.16963631619093378
759 2.3270259228405847 3.4762702563983363 0.18230102246477695
762 -7.088250054815397 2.2843496821913583 0.5427681997934856
763 3.642841252655248 -7.092453836612477 -4.0546707640734025
766 1.656797669226631 -4.597578590566781 4.453777376985939
767 -5.121590780645622 7.218837739813329 3.1100853659869836
770 -2.866847175587456 -1.8778206230063352 -3.9643796805582587
771 5.639392259396863 -6.672361059418741 2.418028867974419
793 7.0685789292868675 -5.945746517582439 0.7121941959595308
794 3.7749581201073266 3.9202311981903155 -5.689607564393669
795 5.514271851719872 -3.160330063609879 0.6364405040181581
796 1.1852150067697702 2.623013800973915 -2.7279930649550472
797 -3.191833091257638 -4.600314307768123 -1.9485865389232162
798 -4.22852429153261 -6.371566749256186 -0.8324537598200605
799 0.18998087593787513 -6.884953287289782 5.3800542505530435
800 4.5800684936035 -6.825196834900556 6.859740145660067
801 -0.7530969621551126 -1.9630784174572644 5.806016166740996
802 -0.22520693944124703 -3.4265542468314494 3.712600263504875
803 7.378164746388876 4.715718277790307 -3.9193175678158956
804 -7.048256040005578 0.22110050711282214 -3.1988885300825274
805 -1.0795266505170775 -1.801712201278607 7.3129728099798585
806 -2.639250988651649 7.404771541898988 0.28798885636989074
807 0.9056004521322675 2.562008015548894 -0.4550400314649742
808 -2.017417327298011 0.6291544014472468 -2.2283547069432728
809 -1.8446575187020535 5.710837256621902 0.38969941642902683
810 -4.483358045064476 -0.03152259277885387 -2.74115392489926
811 5.422114526028275 -0.8158001081416243 3.8407495636971185
812 -4.303727752082111 6.441241826116346 2.4133901336491417
813 5.716037520117878 7.860843008953791 -0.02121499645078344
814 -3.347721735139358 6.975329992610359 -1.5051510992948587
815 0.6247033649752821 0.5378339033404561 -7.931238179888868
837 -1.5656207920161753 -7.203301775855236 -5.596742192136774
838 4.912026855459839 6.310681087201319 2.9540805676406063
839 5.01624318901343 3.1285312416006668 1.430654284205258
840 -0.9141057921483637 -4.859710853896207 2.892474784344066
841 4.303552304676243 -6.082201896782116 -6.666222964785773
842 4.930902132849951 -6.401065645377187 5.475194090458923
843 0.9044765378901786 0.0011466419435568276 1.773166662847062
844 4.956418683338765 6.433534028053152 1.9787239313710752
845 6.093420788141132 -1.3482703796138307 2.7762776047586266
846 5.13222304722487 5.986261835372075 1.7633174524187682
847 4.995325033579975 -5.538835971252418 -2.0949114868063066
848 -5.592816813537848 2.5599111819044995 -1.720168143491882
849 6.539764245686501 5.442951005915924 4.764704724678625
850 6.380757860140889 2.5149933562447075 3.662122639965298
851 5.0907715489106335 -1.5882515426075134 2.617898590707606
852 -3.6283783122900495 -4.666758020447782 3.747761979321464
853 -4.648531008968159 5.825722533786824 4.47224812950957
854 -3.0914814752985844 -4.416739484675648 2.551883498939692
855 -1.47813249466085 -6.376364513050062 -3.0414307400892366
856 5.944940227744727 -6.021856396507679 -4.941810313919804
857 -7.126324161668263 -0.09229723297053931 -1.176570871006823
858 6.773270470664814 0.5037618679569056 -0.8991662641169151
859 7.495718190733192 4.655856895342412 2.37387580892337
24 0.6350381286503444 -5.640829562774003 0.8437456664472257
25 5.007920488931132 -6.120966695985518 -5.035591448309367
26 -6.595059130969034 -0.4059042187847583 2.740177384200241
27 -1.2627673133808128 4.609107463000651 0.43690051460234897
28 1.270447943700301 0.574142061123539 5.642489247826476
29 -4.61457858256083 4.9573678997339625 7.952085725220543
30 7.102601255163672 -1.8308760024429918 -3.9735053746460878
31 -1.3417191105519584 0.29624115687735103 -2.5179699781453206
32 6.198527184834904 -4.62563149380429 6.373050765479049
33 -2.4705453487730904 2.1389260744796648 -8.180321039352842
34 0.7015762934744402 -6.289790694591791 -3.5987920373650164
35 0.3632296117982793 -1.6136718713578355 -0.07366909271727481
36 -6.477908362783667 3.201442130794694 6.953580942083848
37 -5.595612044487635 -7.547845863758808 0.36245149904197843
38 5.415555559593538 5.2204393477115465 -1.422413358492146
39 2.796754798727807 -4.912914616583286 2.040447615490935
40 -2.926876341659547 -6.596824884740286 0.48940796946691656
41 -7.808344502106592 -0.014923152505399575 -7.051623949532394
42 -1.0997651793795913 2.101245105060472 -6.939936194074993
43 -3.8544956946104643 -5.752758895276446 -5.169131054293742
44 -4.439359974020642 -6.526540779357246 5.416116102593866
68 0.8661014652969048 4.531794081513949 1.4064584999082645
69 -5.654995703313617 6.7744484264525795 -3.4953652950281433
70 3.9416510053396596 -6.207778455300265 -2.3955752867235067
71 -2.037043006074273 5.383479045625288 1.2741510052539098
72 6.658328986681676 5.336678250579646 1.204801031123925
73 2.9193485207851064 -1.904654942963927 -8.325330909029075
74 -3.195711957048529 -6.056658123825247 -1.6853158204517813
75 0.9647352731271766 0.38626159168653307 -8.119694407959313
76 0.4178357754356949 1.9642689233868478 0.541115214692089
77 -3.396916516297436 -6.067962086127155 4.059560608316314
78 -1.3621769483370243 -4.157708577477033 -4.9745411170305385
79 6.631675638150443 -1.034978706752025 -5.921766310969152
80 0.4464091586211134 -5.552886407915166 1.3087413657108748
81 5.561706496736113 -6.03575064251117 6.588038786520287
82 -1.4449350770648977 -3.551500657515091 -1.8058137087806339
83 -5.157663232986724 5.113447091378879 2.243847495891803
84 1.3322425691516213 6.27404525492164 4.075949817537404
85 4.711130514401452 2.3321111033666737 5.584931410731767
86 -2.7938800406297792 5.105800289071757 -5.852222657508001
87 2.022381664953701 -5.776235276368807 -7.846301036775751
88 1.7636529827779455 -1.8788771477336164 6.969786082656716
112 -2.481964612451445 -3.016962714153087 1.8350448786112297
113 -0.1073561068900206 -7.6254439560598355 2.472537651805116
114 3.6129635293535634 6.938945589140387 3.8424821553219934
115 6.24420180066274 1.8695866248309756 4.428300225183209
116 -2.0860854825262787 -5.82945633502231 0.9686269252848315
117 6.2167831427789375 -1.7503682185861305 4.826729382757263
118 -0.6245321831740437 -1.1505416815480656 -3.0285506619298337
119 6.688086610262206 -0.004157430027000489 -5.728544480300609
120 3.035437238297656 -1.9276513240529654 4.9207450401932045
121 -4.94155547691653 -4.07815702082474 5.401972669284115
122 -5.237530410019021 6.093709360699733 0.08973379294156579
123 -5.179254845814855 1.4560467394005527 -6.211304593295833
124 6.158007265766813 2.9443332397951227 3.746566533463236
125 -3.6885947081650583 6.655020448389061 -2.2832615447785027
126 6.963164353797931 7.329624822842384 -0.2911367244589596
127 -2.1261834296880977 -6.881978950578333 6.383435480259671
128 2.420903723386948 -1.5687687630872396 -2.8327807075497087
129 4.01853922719458 4.360001070166047 -6.130328796988222
130 1.8271050890952847 2.987130106661103 5.754086584348532
131 -5.403688084911983 1.3513799635129444 -1.8391552705738945
132 3.899103322741165 -4.027258522550208 6.970091086551546
156 -6.900896111690413 -4.887382225037498 -3.1214303133102965
157 -8.140853936021628 -4.063248687559445 -5.293914832121156
158 0.5855158784740943 -5.917159490868281 4.537294635277184
159 2.083355540925532 6.6282500037026875 4.991302820970661
160 3.550778928051961 -5.315281720379786 6.657141979879236
161 6.662609809026052 -3.644858182853383 5.226221686011836
162 -0.01678728620649514 -0.8410185946863734 6.02295953529247
163 4.6878419212426605 2.8110929204011397 5.751040760652235
164 -0.3328569679023713 -5.156440751525662 -6.327730396369523
165 -5.894706464457131 -5.168051985006758 -7.916796658973481
166 1.4805206020770048 2.2505582794403844 6.434199256699274
167 -2.8030881476090665 -2.4701636868479486 6.839376568696165
168 -0.9491202299223489 -5.178241001437163 0.2607684511695531
169 3.1096371125994673 -4.162289786486485 -4.34360459234578
170 -2.80811910918236 -4.6808100371352115 -2.8950676492882295
171 0.7874728087519745 -7.028693799650135 6.190526403904754
172 -6.4856180045779706 2.7357883397684812 -0.9439919499825556
173 2.056159564234692 6.750897970369375 -7.41751364860338
174 -3.7902203075738052 0.9166284349005066 -5.115574462410335
175 3.659465468984443 -5.278259976245584 1.2967380150283792
176 6.618425287975454 -5.427718248484561 -3.79150189911817
200 2.7357148047539277 -4.061053906691547 -1.5509815117319148
201 4.140258587586207 -7.3271357711758585 3.2072559839529977
202 -6.200224394554866 -6.425931151698801 3.582693735164821
203 -3.2390204495922754 2.4312535288517094 6.337616631148177
204 3.7348385311765435 3.8729561222266184 3.111142643263109
205 -2.687396097835503 -1.1569530335358633 1.4801503764517756
206 -0.7833708072831702 -2.471849603443284 -3.2799084746272515
207 4.680717689424748 -2.624514190842168 -7.384627736304095
208 1.9836349476845232 -5.803807209578466 1.6858254405897248
209 -7.653626406102797 4.058434764254441 3.6907739323118336
210 -5.920600019577225 2.2135233662180256 0.8487151029619602
211 3.0543944677888684 -1.8857994057265228 -1.6668571308133853
212 -3.5569382209026212 5.343018461092775 -6.999988293222797
213 4.827927309555279 5.884012069564941 4.418558360202444
214 -6.784209596334319 5.262855250297046 -5.81775996962874
215 4.256200851455814 -1.8085768056522238 6.240924155006139
216 2.8857773222259264 -6.783885961866911 -1.7622497161696258
217 -7.764608238438734 0.26602211913289997 -4.217613259863705
218 -4.804682707790492 -6.593880359316885 6.941281478657885
219 2.962450006947266 4.036350083590527 -8.253617535650024
220 6.667560568384751 2.6903992337246114 -3.4825105817173365
244 -1.6885932081241128 4.124580841722798 0.21921715827137422
245 0.5142294428465212 5.2818681102293406 -8.30924970146564
246 2.999158515357189 5.196154589968512 6.445727646390769
247 5.709138995755127 6.2187010965948435 -3.886990502735042
248 -4.983652484103073 -1.9653411091886313 2.6744170668183815
249 6.72565191470525 -5.465932090655522 -1.4567872848826289
250 -3.68768016652077 2.8381678357283713 -1.7224146296453622
251 2.2579131503949164 1.2402395793694678 -8.296348145015495
252 -1.689304393998465 6.517268278799513 3.432610348794329
253 3.0651039458916505 -1.5080191574941841 -4.203924145288788
254 -1.5575895862921965 -3.3181648354343403 3.523707345998916
255 4.409170589104611 5.537652825031418 -3.8008201349642765
256 2.895205080927105 -6.1330181715958005 6.0343197580023125
257 2.7018443424049914 0.14604469959552796 4.0887929325099845
258 5.433855018381732 -2.823502199991552 -3.1226666085008854
259 -3.303931036466274 5.506294582056725 -8.318320428172258
260 0.8117647054605528 -4.934057567336341 1.4134551722187716
261 -7.017189208489662 5.317148001228265 -3.1956722378148537
262 2.8214205985922374 1.8373804025071483 5.418420459191538
263 -5.549078951874825 7.0818728992570055 3.4979164772988214
264 -1.4475708042482924 -4.8134021468806365 6.541138520137711
288 3.8545884926125686 -6.217410273618056 -6.476073053406314
289 -8.201774145263283 0.7630080596268376 4.626023795759209
290 -5.451303790781205 -0.3983942811263326 -0.150596236461363
291 -4.630895990649365 8.29970014012788 -4.751323880635975
292 5.825696109970887 -1.775363997628388 -3.4464882309236065
293 -5.540593753678249 2.7337113503172397 -4.828549476557777
294 -1.8410632376132914 -4.924464721218874 4.8389471680440215
295 -7.313090450410053 -3.9503758215320093 -2.3764295203862202
296 -4.358163064690384 -4.680986260420189 -5.856852399926281
297 -6.355616538560398 4.479846832090358 -0.32073919887843994
298 -2.819203874456413 -4.48981044307135 -6.176697936050327
299 2.594905641990708 -1.0085109110967037 -1.9541876484135092
300 -5.010291078575388 -4.966957158685951 -6.397616402797104
301 -3.2579595436018374 -5.631558919035865 7.071973264133731
302 -5.067094951041072 1.4847829405268382 4.040897436311612
303 5.085257858858825 3.715751515853427 -8.061198736582579
304 2.6767293641743173 -5.583752243608269 -1.012175745024168
305 6.911519798964589 -0.3785723454301418 4.3833755148931255
306 -5.751628610023301 1.6894951310692663 1.697461327821095
307 3.1476260785432055 -2.5035856049293606 0.2952193432546066
308 -2.356714487148716 -6.739605566156928 -3.5122372387519603
332 -1.0255477676037494 1.4070916454135844 3.7318473533217733
333 -3.0169644154902264 -4.760233461168884 4.5364756327377735
334 5.467830119544898 -5.627514043182563 -4.8917313972325385
335 7.1218292746773635 7.2794826276278215 -6.343498607530109
336 3.2220964020830816 -6.4309511638955135 5.284879308898334
337 5.955543955337154 0.040472318546313946 -6.75956369586382
338 -4.145095465532743 4.294634381153788 3.536957339653951
339 -1.2575217744917084 -5.201712187019911 -2.137026631997709
340 -5.036014788286736 -6.937693457951188 -4.598919488331272
341 7.7723160998546215 -0.2611930632358203 1.3963708774780357
342 -3.2510538977088888 -3.725407027148048 1.8498710419183073
343 6.880661193399903 3.5013333113245233 -3.130832456351933
344 -0.633012350927629 -0.22083684292431863 0.1748747437222041
345 0.7784129705063372 3.9902577379336 0.8530630820350754
346 3.255417473036272 -5.881660318817271 -1.3428346505390658
347 -0.376875870060864 1.9526479416003357 -3.8339640475216497
348 -3.9043039555773933 5.821605698519208 3.0861918376569655
349 5.091266319969362 6.727365641444678 5.293766444039356
350 -5.175912462105272 -5.521395246767794 -0.20608504099284544
351 -4.616626685343463 3.1924350184138497 -2.2370781679380016
352 -4.574578765978733 1.7997827237647073 4.720124636756725
376 3.2366136201860773 -6.315069771177735 1.903420602053172
377 -2.3744743893295217 0.25577741559543044 3.2160726110862243
378 1.014567525394477 3.6684797889822476 -4.92695606711424
379 -3.0149325997770235 -3.2690373557553305 2.4146942539876557
380 -6.584457683772747 5.625557681431077 -6.753081507949611
381 -7.389257622532809 5.8804204742123884 -6.959088850511908
382 -0.3015913298065873 3.88395534104929 1.4823638408341662
383 5.5282213084844285 2.685475673466129 0.9126943468969638
384 -1.4706321328373897 -5.074264206399515 -2.3630254832301527
385 -6.06452120631329 -1.7104920512025235 5.546097577773297
386 -0.019272448696177315 0.4276207231744284 -3.846016592366906
387 -2.5000210665673452 -3.3965040975114884 -0.8505810323672232
388 -1.6057274682932166 5.326992730253214 -3.778266394784785
389 8.051212622398008 0.797022174640276 4.794469564568118
390 1.8366901795177617 6.282272136774041 -1.1107311622990936
391 1.9539874777071293 4.064995487801838 -0.34450245898224713
392 7.088763618978956 -4.870612521974733 6.160788943617873
393 -0.01599910589162173 -7.092265736928279 -0.8932793717407898
394 6.480240761006023 -3.909737799029536 2.4496883293294007
395 -7.056652792925401 -4.796703882196673 -4.257574732864461
396 -0.5038452656452286 4.50651297415171 6.874539882154584
420 0.0997653315179039 7.058801384750176 -4.469129282055712
421 3.7440486230605385 -4.291769927857734 7.538208670079696
422 -6.251037283228122 0.29715455564095694 -1.7158649485656265
423 -6.587517824796826 -6.838931161561043 -4.906812700230594
424 4.40248840289355 6.81419991134114 1.6977857710547892
425 -2.3948020586575716 1.5127101762958264 -0.9373077001256742
426 -6.441523758908139 -2.142822907653882 3.6202231424147495
427 3.3058187417550187 -5.348237795856434 0.8506249259902511
428 -4.938903473402897 4.160683508382916 4.482021767731558
429 -0.41192718701957776 0.6807143717530367 -6.867703670298147
430 -6.609989692210062 6.876744694867137 5.660007298633735
431 -2.482012312470487 5.358850730752626 -4.434804729552237
432 -5.166681635263122 6.165227216122811 -2.9390980056670237
433 -5.088180564618296 -2.7624467509719404 -6.932494202765411
434 2.585602439740136 -2.1760094864388972 5.331342167867057
435 -0.042203669961233974 -6.6357111384619 -2.0998307520496446
436 -0.9004282532816074 -4.510729957328511 0.8687366266464708
437 -1.033616032665645 2.3660732472692105 4.879898718606349
438 4.983780441257455 7.243769693464435 5.646134978927577
439 6.86639511205172 -7.665981802747295 6.961090690156494
440 0.9720756156620283 6.786374281363733 -6.908747585194489
464 2.2807451950174227 -4.536652990405184 -4.452027473586855
465 0.4611355886679445 -5.31321323622607 1.6728480782767754
466 6.631982763874017 7.248952768981326 6.684554627448607
467 -0.5233413414407483 5.951029733316108 4.099627795194884
468 6.342188962635881 -0.16098778132479444 1.8668631350258105
469 -5.601796462215201 2.812002441454789 4.708595816115026
470 -4.791757751905631 -4.547973212166183 6.127243371681426
471 0.6828922205076836 -1.207988755685972 -7.181436553939942
472 -2.4763434570708074 5.38426520434872 -2.354218901588246
473 -6.735021851575934 -3.966784671402508 -0.5709593094284735
474 6.294227023352063 -2.9043493949475914 0.9094283600773237
475 -0.22410942423665903 5.8821518763746585 5.811821997546568
476 6.060948437097911 7.073680515245524 1.729413688953111
477 -2.0354100258665793 0.17144680994325742 6.474163923557595
478 -0.15811429252668985 5.2436651157389695 1.6021823409701104
479 -3.4119472687120402 2.5704267728431933 -5.9198738249759435
480 -0.28561868639863064 -0.2300070203652434 3.853175194537246
481 4.68654923585535 -2.5863050909362157 -2.0261320518194306
482 -2.9603755397504923 4.205689893257605 0.5881457090358883
483 5.543227675916932 -6.362751579683649 -2.8515737556147642
484 6.208644405448238 -6.732565773251099 0.04085471099419189
508 5.505615564932302 -1.7734242188169556 0.4641973981799661
509 -3.765050850309576 -4.699667704788356 -6.247070351451383
512 -7.115257569194316 -6.917703237614421 1.4281798835535604
513 -4.083203407406745 3.9453213331931027 -3.269887904227823
516 -4.831031068257405 -4.717533480043491 -3.2456702342897645
517 0.19487300366917162 -6.306788973408984 6.972328190183837
520 -6.223263003834175 -6.304949771607367 -0.15680774652686463
521 1.5514983156591038 -0.46151966792084076 -1.7672236641510968
524 -6.994689071308139 -3.2509275157493964 0.2798535331355322
525 -6.254538027616185 5.114789778525561 -7.847140216242425
528 2.1480149590830844 2.578066321972122 2.1559139994694454
510 6.6005193722564295 -5.115086764576882 0.12048374078221351
511 5.645472742506298 -2.4502731983527353 -1.7652544494848652
514 4.560075106858958 1.4400744050686525 -1.4048597891402999
515 -3.394309543485349 5.089899380221942 -1.6321668819120685
518 -4.547249781048523 2.0592027717904586 3.733989902474079
519 -4.530611333671889 -4.4076605323670695 2.8878885726742514
522 -6.83766234054541 -3.6909342121080586 -6.934652100797849
523 -5.687441400914193 0.3088635292340073 -2.647706591436209
526 6.138433989187888 3.9248076060101402 -0.5018634731673045
527 -2.1480281612156915 1.5352200087805137 1.823845126380382
552 1.7847092471058728 -6.62595327107061 -1.3213745556567962
553 -4.249254832539671 5.3378842615753985 2.4145842592414515
554 4.460527722166305 6.781025871263703 3.6196428547689465
555 0.4726989821573634 -6.912442378004641 0.5763348155288155
556 -6.168018774242405 4.067157629248766 -3.7382902628306867
557 7.621359031868223 -6.43801426438486 5.852177340853795
558 1.9916007545398218 -1.0327872383885925 -3.620827449835316
559 6.968650709729397 -3.5765074201882827 -5.344846018962897
560 0.6451457297970228 6.436150209014718 2.9121120704573586
561 -5.422232677510143 -0.08104726291804765 -8.043507717205731
562 6.580305619563255 -0.5535060232448242 3.7834477489850338
563 6.412755648092039 -6.451060648011209 -1.144443455590777
564 -0.06914995780034476 -5.819546006424104 -4.615541452418653
565 -5.773096254803912 -2.3609199935293304 -2.252347957048061
566 5.579120234350645 -0.10105005362741185 5.049062633047341
567 -5.208061904132645 7.158776388346324 6.042399438540162
568 -2.0408348433607655 -5.618150527822236 -5.3206014366386905
569 5.749538014565064 -0.603132079245774 2.1527120051205886
570 -1.523822225527677 4.731918868651749 -6.309524493574737
571 4.630638228111569 4.785774765011017 -2.1510379598565463
572 -4.656971802546107 -5.803493842091796 6.952592789051856
596 -6.4042698825760365 7.122774231542648 -5.196625289451136
597 -1.4580097671546224 5.251010820100233 -4.4072355189258055
598 -1.7317538043928147 -3.996139280712586 -0.7955831591125083
599 6.259892453121512 4.32213780815873 -5.676326919120868
600 4.35818496722489 -6.168633578868897 -4.38470476109479
601 -1.220292164646356 0.023259342145681774 -2.1402827836738045
602 -5.499724037529488 3.5010589773315077 -7.033205727783147
603 0.937053163151122 -7.661532566207911 0.09558274155860527
604 -1.4946528562612895 7.231501600188064 0.29452926535259943
605 2.654998290179362 -3.414820982888259 1.5440670110774724
606 1.930336983363992 2.1893773759616795 -3.2964671706808186
607 3.0892456180329515 -3.97806780868042 5.7385359791119805
608 -3.6624165144823997 -2.923285174774855 -1.7412777958597474
609 5.756607104540071 3.9057060782746746 0.3958997030239601
610 -0.4140011304904692 -6.115480774972269 -0.472012163877272
611 -1.5523839667740744 2.9940712565163565 -5.068704565987566
612 1.0859607953639978 -1.4542597275717424 -0.5882700585118313
613 3.2592383314797155 -4.444459219203179 4.905440059826313
614 -3.8263279509718804 -3.4298202094052166 6.203920995455312
615 -4.151711026260111 -4.448658211231824 -0.3519577927788338
616 4.963581451773522 -2.2921127347866 4.984073302557542
640 -5.949651964548565 1.6874907615473551 -3.298800372318085
641 4.856400566590171 -5.428915741051205 0.18391937320394405
644 3.075544549048082 -2.0867356253323592 -0.5296590823925236
645 8.008320358926058 -1.6275770975514896 -5.176091624635274
648 6.213626447472401 5.272672390312028 1.3774395617318855
649 3.765751059435328 1.2282417727845023 2.330465393095541
652 -5.842042878942393 2.72925070306262 3.94265535312243
653 -7.399201593165044 2.039758990280269 6.98132002117038
656 -5.9668200404543805 0.055407558759132836 -4.956116611856009
657 -0.6969844570537733 -5.9485921849246575 1.871359054904068
660 5.351705868694996 -6.327771962927486 3.601510273686669
642 5.023828692490729 6.0920720873938725 1.263258195979523
643 -1.6756866781940436 4.398592657678689 5.656636093111587
646 4.7087542915844285 4.158745733627038 0.6050183003107535
647 5.251043566004686 -2.1427336211332624 7.162587226517867
650 2.1887791324420003 -0.8867165457315479 -1.7063170333736626
651 -5.1927315289491895 3.556147405472126 3.7187914631533205
654 0.39338009179452715 6.959658358346493 -6.67771648044141
655 -3.2322326499284206 2.212445426854303 2.802037331095816
658 -3.2237649471284464 -4.1388442956717215 -3.525502216062347
659 6.377600077160893 6.853574560658219 3.74758354983726
684 0.6456021133681542 -0.23899953828137696 -3.8281891487831587
685 2.3229857183333706 0.8876142764620354 -7.52801267806326
686 -4.497918777893715 -0.8787559895017986 2.97645567420736
687 4.585643259874924 -0.3214529010055298 0.9927256604584713
688 1.4341583400168683 -2.298205090389094 3.0089716826439012
689 -6.913611103815753 -1.0235331169818773 6.827842730687079
690 -3.3572737720055765 4.235719082518539 3.193134661634104
691 -5.4786545989122795 -1.295893262941599 1.3251516820711502
692 2.8511812644496 -0.07070348876869913 -1.3574051698395908
693 2.224408892129165 -6.687809124266359 4.042647665282921
694 4.708098878576121 -6.856780696977634 6.8165420267912245
695 -2.8579311965467693 6.522334529681107 4.705347899217729
696 2.571075602170484 -2.453565255233961 2.7677749058943957
697 0.739086563950887 -3.8180455114436107 0.9870122599124631
698 -3.4800966253033723 5.716757239518691 5.405517975449614
699 5.346826072476318 7.45485391384172 1.9439560132051974
700 1.019841725317373 6.238427329218733 -6.385401951407708
701 6.895848733569709 -2.501923745968308 -4.431447684727558
702 -6.779393510150515 0.13328517759735348 -1.5155236833469676
703 1.2327523678531107 -1.789648273145667 -2.2025358713228496
704 -3.855214848608043 -1.1819022517554045 0.6811176738953156
728 6.470261653221231 0.5184587897213566 2.236994566694655
729 -4.592379823977843 2.490301660360824 2.704880019559074
730 -5.96257335321454 -0.2984621378080205 0.9750905188181865
731 5.512255441049929 -4.392613606938144 -5.478680434590566
732 6.403586457758592 -1.135654020456245 3.313366043975304
733 7.1612182062430465 -0.19012156919386197 3.895104836956053
734 -3.4539688245104587 0.1334639193121445 1.488588317139096
735 7.992380769788454 8.064758251162226 -1.858450771588771
736 -5.537034421548005 -6.714262847446799 6.400771730315096
737 5.355587025509468 7.7413039031966635 -0.6768343927344564
738 -7.130618594887989 -6.869870379548783 2.0020734631892805
739 3.5469928527458574 -1.4687470867922108 2.691156414719482
740 -3.6493317218068015 1.8089989143211345 1.8151666181780326
741 -2.1214430940982703 7.473780134831421 -6.538353676931258
742 -4.128123673507995 2.62777439485945 5.555366232662233
743 6.714615402589315 4.9885922952375195 -6.108753722150757
744 -7.16934356823948 2.176570158340571 -3.363547318968909
745 -1.2081911381886048 7.460027499164992 7.2525780754320195
746 5.248122823812255 2.91378082503017 6.693314962168531
747 0.7037936934806682 7.178996344030329 2.975123462390507
748 6.268590323052649 -3.412718507819322 6.720451003310264
772 -3.108174837205142 1.9296954980779024 -6.71090686025179
773 -3.036372002261623 -4.36823846399066 -4.0247852462759175
776 6.612714377626773 -0.9918694875724483 -4.504433993916209
777 -2.508550282431957 0.2118525047788534 -0.2354652890496144
780 -2.975837409519603 2.558636375446363 5.54533656923602
781 -0.9021394098536667 7.710358265980858 1.7403303036903872
784 -2.2870179775340604 2.6569689150230302 -5.867928333995529
785 5.743501009262817 -4.094488434880545 -7.819858675409524
788 -0.8378983398478166 -0.7984300694357047 4.528882057637222
789 -1.1513806918627258 -1.1239534006901761 0.9269596450667366
792 2.5306810634979873 7.223667787111683 -2.258071263537908
774 -5.425680644577515 -0.11782885510238687 -4.386073637920593
775 3.134083821325417 -1.5055885595011875 3.9896057365932043
778 -5.406482881247966 6.936034023750647 -2.0554320680597185
779 -1.7955009913232283 -0.8824370407347691 -5.770136591577508
782 -4.907213316219279 5.9903834829057665 -0.692094585408547
783 -7.428481546771837 -0.20546248306930218 7.320610023655419
786 -2.139812635384085 -5.049643495463726 -4.584801177486143
787 5.553781940225003 7.735115714046858 -6.709137674302988
790 4.492774372176125 3.618112348416988 -5.062812435986213
791 -8.116021926329656 5.0692058753329805 -6.523832393476972
816 0.29429330586985347 5.696304890651537 5.957012820703608
817 3.129825832391215 -7.754547403823885 4.356675077232072
818 -2.752018446449927 5.7397807315389455 5.030460822397834
819 5.710875271872347 2.7427632123089873 0.34720737993490425
820 -1.900899339653571 -6.3986418003072485 3.175992898977701
821 -6.195712303567771 -2.2559490250648735 -1.5119326406860591
822 3.893858782840456 -6.0987100698817285 -5.518540253420534
823 7.707149071475679 -1.4961643836183898 -0.9059231332320425
824 0.30104346598694715 4.381538560131805 0.8854738372885311
825 7.707239768097601 0.028173741037742537 -1.1878070708059352
826 -6.7256418009319985 -0.2338089074750499 -2.6627877507180937
827 1.7306245621586547 5.620491300930665 0.5203943815671567
828 2.466563944746241 5.526384974964651 4.885086906455715
829 -8.045386358514346 0.24132774354165382 5.291913801297228
830 -1.557893935528877 5.9122259709888 5.5087379389075934
831 -7.826549659099516 4.257543838264683 2.720095716133222
832 -6.766045224250782 -5.051488542569156 -6.903331023845278
833 -4.176861926430519 -2.6119397520455885 -8.31998369381298
834 -6.585077190785726 -4.786496685690672 -0.3176049341281404
835 1.4403668810397736 -6.768297890055242 6.555480387265609
836 -2.518783354881465 -4.969264361042509 -2.1380011275065183
860 4.112296562821621 7.06000910878876 1.4835002071346866
861 2.014528613391664 -7.132350533915534 -5.119085315274176
862 -3.005703588901841 2.693354454124483 3.1491133969873353
863 0.551711654341512 -1.5764497283202246 5.025807798754461
864 -0.6531670240630948 5.333694024815736 -5.914316101002673
865 -4.099586587274258 6.182227284328508 3.5907278786203993
866 -3.0403743779097465 -6.195059309240534 -3.8087138705207866
867 -3.767904493905683 -3.674559744968927 -4.104973993904907
868 -5.348921649467985 -1.1323565073678856 1.3523148107839082
869 6.085911475863741 3.072840519892576 -3.8236837511867936
870 5.153765762637414 -4.93061933614722 1.8174530585190587
871 1.5747825291017459 -1.0141113742747179 1.891419477906605
872 -4.124798010119298 1.1398452594386674 2.2910160217906355
873 3.0890315974245293 -7.575112174432948 -0.6970037915909
874 3.2458651556022775 5.719601695768137 -4.170059549365108
875 -5.037160969860467 5.628087097394655 -2.4471767937743576
876 6.672054709724116 6.495490587873356 -3.9453303643037203
877 3.0463840125740473 -5.88739785563631 1.652237932464451
878 -3.804199623805948 -4.504324641730644 -6.241831538499402
879 0.11600242894230497 7.07421563469345 5.432393303233883
880 2.633922857801126 6.592304935125135 2.1619116100055686
