LAMMPS data file via write_data, version 2 Aug 2023, timestep = 100, units = metal

512 atoms
8 atom types

0 21.724 xlo xhi
0 21.724 ylo yhi
0 21.724 zlo zhi

Masses

1 28.06
2 28.06
3 28.06
4 28.06
5 28.06
6 28.06
7 28.06
8 28.06

Atoms # atomic

277 3 19.09125053890908 10.473757822633706 3.020724772500361 0 0 0
2 2 0.023161599724105482 2.7518609763121806 2.7763651227120687 0 0 0
3 3 2.7638440522163092 0.3651038588855215 3.03220844105061 0 0 0
37 1 10.912952210826132 5.191898769035063 0.23196031927317923 0 0 0
5 5 1.3006835503268976 1.4985411378989921 1.446057559800796 0 0 0
6 8 4.382864048661407 4.217286160917822 1.2709835679151962 0 0 0
48 8 20.44026126794126 9.36112250409244 1.2605536203988248 0 0 0
8 2 5.521217155801357 2.581727658386597 2.6212526705783556 0 0 0
44 2 15.830592775785945 8.143954882667895 3.0245920447768277 0 0 0
275 1 16.366801519068815 10.721525575819141 0.24145952909379353 0 0 0
11 5 6.807598375645614 1.118581319270186 1.115875014075114 0 0 0
12 8 9.373025042582494 3.8537742054763813 1.5177184702881301 0 0 0
13 1 10.87161354826906 0.4549710205059693 0.548032520504959 0 0 0
42 8 14.479205197488579 9.31305275220662 1.2228381542818954 0 0 0
9 3 7.948525961305551 0.1647083117589112 2.7003398004264163 0 0 0
16 4 14.217297650372409 2.2484230565252297 0.1139703960701062 0 0 0
17 5 12.541712841963033 1.7048628820345815 2.0143691124011265 0 0 0
18 8 14.954138642805724 4.036281469240278 1.2325835697685759 0 0 0
47 5 17.32192319594269 6.739183097570217 1.708335291062525 0 0 0
20 2 16.225183545737607 2.852422807739977 2.765714571103955 0 0 0
46 4 18.798323295219856 8.090636541220272 0.10224923940750659 0 0 0
22 4 18.77994971407131 2.4789724406646894 0.26307656986630107 0 0 0
23 5 17.6471753640271 0.9189927813766489 1.4949534482626416 0 0 0
24 8 20.35748024237469 4.082838982089112 1.5345843619796098 0 0 0
271 3 13.540615205693744 10.647789873317665 2.892361332307851 0 0 0
26 2 0.052495746136829044 8.004448345298217 2.573904167585618 0 0 0
27 3 2.746874473622799 5.38499812178848 2.5495393917350073 0 0 0
45 3 18.778489930415656 5.261755097233783 2.83924062274061 0 0 0
29 5 1.4330392889158927 6.75710601558535 1.1769991106387931 0 0 0
30 8 3.719032760168411 9.463536412284107 0.9945164701137603 0 0 0
41 5 12.226967437006401 6.668080911297548 1.4198735765556714 0 0 0
32 2 5.3147930510640125 8.51924544228242 2.629350702503997 0 0 0
33 3 8.357718719958832 5.641937539500207 2.832086128181291 0 0 0
34 4 8.242306979721887 7.992529283903982 0.0010770503914887914 0 0 0
35 5 6.676984811555923 6.848740024980674 1.4257813774489594 0 0 0
36 8 9.519185692513176 9.433789776202302 1.3361094501577848 0 0 0
259 3 2.6640375041056146 10.633261756173097 2.8103227301322744 0 0 0
38 2 11.028868846126935 8.192723063155084 2.632102939021006 0 0 0
39 3 13.797748101567981 5.34978011001745 2.8689348655374984 0 0 0
25 1 21.540063460818573 5.495334343003087 5.724091427339317e-05 -1 0 0
4 4 2.8876810991450887 2.772113080376725 0.0694494345470531 0 0 0
49 6 1.2469402588529501 4.003238896159291 4.297719646500967 0 0 0
50 7 4.1520507299500675 1.714255066850584 4.288820077495741 0 0 0
51 6 6.684115418930166 4.292787954167758 3.829094211303634 0 0 0
52 7 9.312352582574714 1.3604447167268845 4.268592583887886 0 0 0
53 6 12.43969026895075 4.336052100460968 4.5606662084833305 0 0 0
54 7 15.094393721429059 1.5954285019924312 4.447716238381327 0 0 0
55 6 17.275952002056314 4.297356805621206 4.28538693740993 0 0 0
56 7 20.546668877023173 1.3367954747305448 4.307491898278906 0 0 0
57 6 1.1430651473313533 9.333302381908345 4.146508625621509 0 0 0
58 7 3.8495624487640447 6.980727181768977 4.001970851245487 0 0 0
59 6 6.836306227733897 9.541937752745207 4.222416254138417 0 0 0
60 7 9.212056179093459 7.3388440025318715 4.209349894482322 0 0 0
61 6 12.165259855683882 9.398535076181547 4.2964109665143635 0 0 0
62 7 14.612194076958033 6.797321384521148 4.549189244131795 0 0 0
63 6 17.477253429071883 9.41055645170731 4.386334429699476 0 0 0
64 7 20.191966620755043 6.68183141421903 3.9237637976994377 0 0 0
80 4 19.026552214891748 7.958237931474139 5.38324171322657 0 0 0
66 4 2.6900659772552857 2.8024097135159454 5.711325826057173 0 0 0
79 1 16.368723568635637 6.0237188062126945 5.726201827038365 0 0 0
68 4 7.940054100087326 3.065693984547012 5.385626848240303 0 0 0
78 4 13.363604592507501 8.18944042377283 5.935458938017947 0 0 0
70 4 13.809394995508647 2.9543437823777694 5.947226498582003 0 0 0
77 1 10.566217804522186 5.638339961314233 5.2742900892888 0 0 0
72 4 18.60125912606394 2.408751077197786 4.898773435255732 0 0 0
73 1 21.300221560082353 5.1477709425710305 5.241325775415133 -1 0 0
74 4 2.574476569698988 8.188643154971217 5.729339753310663 0 0 0
75 1 5.622929612326679 5.857397908701972 5.083787036102121 0 0 0
76 4 8.238817816291748 8.46675015911592 5.818807880203682 0 0 0
323 1 5.431127780621102 10.767468399320828 5.710005154806782 0 0 0
327 1 16.365269037130187 10.710732814534373 5.984465318291905 0 0 0
14 2 10.773927878068843 3.067105279108266 3.3179185893695813 0 0 0
15 3 13.804451498822957 0.02065587180201486 3.1909826584579752 0 0 0
81 2 21.549198082092328 2.8609972092071616 8.145486877228267 -1 0 0
112 8 20.17541232136824 9.747104748955262 6.4887256205801656 0 0 0
83 5 1.1468821738703632 1.4216155960608705 6.853075803876515 0 0 0
84 8 4.351240020000769 4.23098751928037 6.7348649134595195 0 0 0
85 2 5.380820583311142 2.6482602265755837 8.13281947627341 0 0 0
111 5 17.88469448160295 7.046906771773381 7.261375137293406 0 0 0
87 5 6.732505063026442 1.4044963393308656 6.6028709584448375 0 0 0
88 8 9.386015930874503 4.029793718715974 6.9367889547023065 0 0 0
89 2 10.736499785006254 2.5472719118783824 8.402289618330528 0 0 0
110 3 19.325783925724853 5.656300142896843 8.434896151806958 0 0 0
91 5 12.019682420249197 1.247524476970098 6.784775241669501 0 0 0
92 8 15.056276537972515 4.5177685055026595 6.881821745118445 0 0 0
93 2 16.69676419908334 2.9786554932971865 7.988616020906872 0 0 0
109 2 16.246973952647316 8.133523668678894 8.622386193277388 0 0 0
95 5 17.733260745902225 1.2788115557059627 6.845946727540899 0 0 0
96 8 19.77949362832516 4.032530201336014 6.672486402004497 0 0 0
97 2 21.52592782877201 8.040919609360413 7.7731966949505855 -1 0 0
98 3 2.5953330052753047 5.137517546194764 8.211672730335566 0 0 0
99 5 1.087926685713222 6.411350291115441 6.76608662013226 0 0 0
100 8 4.436738611421588 9.362370022204313 7.20194202573157 0 0 0
101 2 5.751041142013788 7.922383733009451 8.292808015342317 0 0 0
102 3 8.177188099353911 5.551841754691142 8.303894579900604 0 0 0
103 5 6.876855697423821 6.700768683198091 6.785883505744339 0 0 0
104 8 9.251625665314803 10.166622806315832 6.954951570924013 0 0 0
105 2 10.677488021398593 8.441801509634027 8.021842144526156 0 0 0
106 3 13.701235841911922 5.368154422274871 8.552216817730459 0 0 0
107 5 11.920274055920046 6.635556084475232 7.12768321924908 0 0 0
108 8 14.679234301099884 9.536255656282734 7.434732725220767 0 0 0
118 7 15.283309838128213 1.2298644008741764 8.908866993870436 0 0 0
121 6 1.4930940050850061 9.333161439408663 8.83920113054476 0 0 0
114 7 3.738243139822692 1.4392181005159441 9.280099988965226 0 0 0
113 6 1.173315528413009 4.0247454731138586 9.827082462277296 0 0 0
389 1 6.115270202856712 10.713639256344836 11.28539697895821 0 0 0
115 6 6.447277563399182 4.326816534072704 9.496057524619271 0 0 0
116 7 9.352812892070814 1.1551579991629846 9.4379094180596 0 0 0
117 6 12.432819371504314 3.670055474403625 9.518556677434509 0 0 0
393 1 10.664635108431742 10.806137011813686 10.549730405464311 0 0 0
119 6 17.77634689678012 4.403140386165761 9.463273718514996 0 0 0
120 7 20.082636746416682 1.4309322578670345 9.544734170998158 0 0 0
158 4 19.184934371360026 8.513955040987046 10.69914700077126 0 0 0
122 7 3.9778157112341277 6.750807319129189 9.411811856687711 0 0 0
123 6 6.791245257114764 9.381481588510555 9.657923241885008 0 0 0
124 7 9.749348716255742 6.929960006007306 9.525908987625046 0 0 0
125 6 12.256778106539151 9.284699177434717 9.576106477273296 0 0 0
126 7 15.217923183149173 6.590642197392873 10.00907242092766 0 0 0
127 6 17.71021001970082 9.86273677785047 9.463469722831825 0 0 0
128 7 20.692925979587077 7.202981148009066 9.633727213335463 0 0 0
137 1 11.166758363572734 0.11135902416000748 10.695295524281146 0 0 0
130 4 2.615724926340665 2.752315493985726 11.071243488191085 0 0 0
131 5 0.7963975790015133 1.5632205518625206 12.233074215184995 0 0 0
132 8 4.01021192968214 4.404443236161877 12.059122590727615 0 0 0
133 1 5.1421831696642615 0.24179722099442316 10.806606625478803 0 0 0
134 4 7.994842975545146 2.681129155685546 10.45670552754373 0 0 0
135 5 6.745963790443753 1.5521911484947721 12.156433931672533 0 0 0
136 8 9.459249399430027 3.906292489936747 11.756060770028053 0 0 0
160 8 20.42833854439494 10.116890424175368 12.054659523559234 0 0 0
138 4 13.819816421834998 2.124172049406345 10.752304245238461 0 0 0
155 5 12.625206256765955 6.463329057098875 11.981987826572116 0 0 0
140 8 15.012188190557882 3.7024789522739336 12.127382049770366 0 0 0
159 5 18.025569611546608 7.137513593360783 12.092316760529359 0 0 0
142 4 18.771196557257152 2.793006868031834 10.975519304396542 0 0 0
143 5 17.54129522759884 1.2095726996708913 12.07676316957763 0 0 0
157 1 16.651058835205692 5.297355046599547 11.205462541004106 0 0 0
145 1 21.138882982557853 5.2870317222715375 11.222688896561731 -1 0 0
146 4 2.641692718925548 8.338907511623665 10.590224768810256 0 0 0
147 5 1.3616927518895088 6.709512440265861 11.815843295193135 0 0 0
148 8 4.374489136367195 9.128852515039446 12.108372024269917 0 0 0
149 1 5.473896749176844 5.943952247109996 11.028081628000518 0 0 0
150 4 8.64966993487302 8.358608713853668 11.006902078237655 0 0 0
151 5 7.005770298620074 7.113646272776882 12.258062472904458 0 0 0
152 8 10.28646039383096 9.347123663994802 12.346441221668211 0 0 0
153 1 10.920747365516258 5.251858009516603 10.734316419542527 0 0 0
154 4 14.017770252480878 8.368680172721978 11.106696012642372 0 0 0
161 2 21.221323833388556 2.4566022421481324 14.004177532193507 -1 0 0
162 3 2.584242005320732 0.1877034190120779 13.234944107403274 0 0 0
163 6 0.896101911567929 4.01939884232701 14.715079561216022 0 0 0
164 7 4.011730341573253 1.2688261404033965 14.823833365280148 0 0 0
165 2 5.282173028640649 3.030423863691534 13.767929724557234 0 0 0
166 3 8.210221199459342 0.2781584782766876 13.48960955846672 0 0 0
167 6 6.821187149922501 4.120577376830997 14.825010524406187 0 0 0
168 7 9.8053454947298 1.2459176052567962 14.874623345225098 0 0 0
169 2 10.835174117467842 2.892919960944225 13.463240189020087 0 0 0
422 3 8.691808075358113 10.625950924901998 13.46935584909539 0 0 0
171 6 12.336560630517912 3.9453014312266417 15.019928870421593 0 0 0
172 7 14.956389398626632 1.2925905069087713 15.33361049200438 0 0 0
173 2 16.301855132172555 2.443056657250891 13.547016059741148 0 0 0
144 8 20.179837173352343 3.9189440093598527 12.75503831043901 0 0 0
175 6 17.289903783683542 4.273513696380546 14.753244505805798 0 0 0
176 7 20.066403293512714 0.9591454108999639 15.371568058589842 0 0 0
177 2 0.1556883819043537 8.45520943788962 13.427650293543893 0 0 0
178 3 2.477922276610195 5.437306833457976 13.507434760089211 0 0 0
179 6 1.6683065469024063 9.880716519400499 14.589009988295215 0 0 0
180 7 3.833925030688351 6.8458306843951995 14.998069266502238 0 0 0
181 2 5.544706216238327 8.210375208800858 13.800064015985622 0 0 0
182 3 8.193545752958261 5.287294943052079 13.158229894267878 0 0 0
183 6 6.896050109816071 9.820900682000719 14.751013929941365 0 0 0
184 7 9.669290111319704 6.5601342339280535 14.419602311203448 0 0 0
185 2 11.422064986277201 7.842686415336276 13.64777137585377 0 0 0
186 3 13.635187035293116 4.9680767702993185 13.38651673918524 0 0 0
187 6 12.881618887359073 9.35373159654305 14.947857600954126 0 0 0
188 7 15.012148216800448 6.572788491212824 14.764023726367117 0 0 0
189 2 16.63558643993804 8.00855103279944 13.755891351360642 0 0 0
190 3 18.937770712330074 5.695364010012593 13.646184265362857 0 0 0
191 6 17.56811033302344 9.82735311444426 14.84545876707454 0 0 0
192 7 20.358392480186087 7.260961599487195 14.80392395329285 0 0 0
174 3 19.092394340417286 0.02066078377833591 13.459013689599043 0 0 0
139 5 12.191814366906666 1.281912611362776 12.449002581664635 0 0 0
156 8 15.390666406977214 9.69467028933879 12.581138058950385 0 0 0
193 1 0.24479382879270994 0.29800828973576193 16.28249566256573 0 0 0
194 4 2.5645172552563404 2.7271438460189583 15.993761939984832 0 0 0
195 5 1.3391562008599809 1.6804165607735198 17.781129543747603 0 0 0
196 8 3.9207367661878623 4.048840322018401 17.450249569345615 0 0 0
224 8 20.232199063165556 9.81256807071633 17.833383870349063 0 0 0
198 4 8.282305397799435 2.6764974099348944 16.023412248089887 0 0 0
199 5 6.539017113412111 1.2937270302994743 17.058980403038408 0 0 0
200 8 9.688193155488312 3.882606426380939 17.535165409650894 0 0 0
201 1 11.08075265133082 0.135183007562184 16.479475406071344 0 0 0
202 4 13.449661795975524 2.8578767879451163 16.657789814787076 0 0 0
203 5 12.1111798869065 1.6727335383422426 17.988578344029065 0 0 0
204 8 14.727319009035263 4.269187692941842 17.870151829597926 0 0 0
223 5 17.888930274841698 7.169135141351168 17.543989048809653 0 0 0
206 4 18.81402131057745 2.995018465114573 16.03973236282279 0 0 0
207 5 17.4886296318536 1.7195441496795543 17.562027326101433 0 0 0
208 8 20.126716599677742 4.303872768535176 17.55477644634007 0 0 0
209 1 21.682842259249885 5.722573397033769 16.040265297731423 -1 0 0
210 4 2.6026507377022625 8.494075313997268 16.283211364375966 0 0 0
211 5 1.3910410866545353 6.936354955185165 17.50110667919709 0 0 0
212 8 4.566989164448698 9.291519952902194 17.59155412185852 0 0 0
213 1 5.373145920206036 5.361432177098793 16.254626126189137 0 0 0
214 4 8.257655487903287 8.305053752998276 15.95697494188597 0 0 0
215 5 6.900057219734129 6.81000109531816 17.43736849033298 0 0 0
216 8 9.576283972581457 9.443094489535076 17.48864748267822 0 0 0
217 1 10.780226583229274 5.5250464827272046 16.177914032172968 0 0 0
218 4 14.054940053378267 8.10048705979391 16.56459158173126 0 0 0
219 5 12.40144633727094 6.783466677585369 17.496937583209178 0 0 0
220 8 15.089360116531692 9.721480523335625 18.031475203988375 0 0 0
221 1 16.30611976485942 5.534281927559016 16.580365750803654 0 0 0
222 4 19.036919721495227 8.748921257631375 16.252223620368078 0 0 0
449 1 0.08673237794529473 10.696248646378159 16.518307073341386 0 0 0
461 1 15.882752806281374 10.79203838174775 15.987520374746886 0 0 0
457 1 11.457938189132918 10.710415881476438 16.444650867445066 0 0 0
246 3 8.450006860750474 5.418113639245375 18.546700740447694 0 0 0
229 2 5.384895550827762 2.725491976216105 18.464286889643684 0 0 0
230 3 8.082977550703713 0.378166594150721 18.591038292541196 0 0 0
225 2 21.339748632113828 2.609946171362508 18.976316406542267 -1 0 0
256 7 20.36364084138653 7.074888477847389 20.417167946711906 0 0 0
227 6 1.3104553206191618 4.240655506977266 20.35678587382434 0 0 0
228 7 3.9820256395348603 1.2135229565906398 20.10539048756941 0 0 0
226 3 2.312976193499908 0.08511626227597446 19.27784748387692 0 0 0
31 1 5.985122238054349 5.2589699487094475 21.366011795887058 0 0 -1
231 6 7.03289549759012 4.007048959228439 19.532093409935044 0 0 0
232 7 9.420599610495227 1.1466064098806148 20.45442517662599 0 0 0
233 2 10.698743181590775 2.841384597432781 19.396092378545976 0 0 0
255 6 17.88233218945155 9.829245816347965 20.48730320409189 0 0 0
235 6 12.492806163562477 3.643907137439237 20.741904278695042 0 0 0
236 7 15.51880901983828 0.9105538150989236 20.202490073536982 0 0 0
237 2 16.055028454741173 3.024878382624036 19.29134914512574 0 0 0
257 1 0.2012788395724568 10.669195908493428 21.631666566024542 0 0 -1
239 6 17.769158812392728 3.957970122780457 20.501629205034355 0 0 0
240 7 20.149815989945818 1.3693616741202126 20.56982571065432 0 0 0
241 2 21.71185505504828 8.165281359528006 18.879406915825815 -1 0 0
242 3 2.690901545081573 5.484547790664876 18.768819391974176 0 0 0
243 6 1.5466445172557683 9.635889181625911 19.919183640832202 0 0 0
244 7 4.086172382419961 6.4200988420481195 20.418380062348547 0 0 0
245 2 5.654064651314416 7.653710857092104 19.102373770285947 0 0 0
234 3 13.55359950830315 0.10956017101125179 19.14124070213534 0 0 0
247 6 6.901434633391496 9.31025484207288 20.41936937058852 0 0 0
248 7 9.65350540005251 6.596146155424974 20.2865061485279 0 0 0
249 2 10.82591517378022 7.982363240682856 18.714234091402986 0 0 0
250 3 13.374310042398028 5.275104754037961 19.31232351217642 0 0 0
251 6 12.256756773907819 9.433387839042732 20.294494843713032 0 0 0
252 7 15.043894917929858 6.6234210439363554 20.068975567721836 0 0 0
253 2 16.678226411703875 8.296544244934227 19.172793781026 0 0 0
254 3 18.792904370786747 5.7701982326698475 18.922776139466112 0 0 0
486 3 7.928261261370333 10.596593973354286 18.696189859211227 0 0 0
40 4 13.295319940592869 7.765605478146479 21.615754887988583 0 0 -1
10 4 7.967784080994346 2.7216432268126796 21.382330192522158 0 0 -1
43 1 16.27676365508597 5.378249099210015 21.71541562223976 0 0 -1
28 4 2.6702322576092308 8.010136420544201 21.20577569086902 0 0 -1
269 1 10.798387534077602 10.728720226890008 21.546005143580913 0 0 -1
263 1 5.493874437402423 10.806261919529925 21.72104936871377 0 0 -1
304 8 20.206820142219833 19.915811721941317 1.517561186458568 0 0 0
258 2 0.08335127771574331 13.38569734666644 2.55926687647599 0 0 0
303 5 17.896088512525793 17.2154548576607 1.190299460019241 0 0 0
291 5 6.250951988550607 17.70504940144493 1.355589057028257 0 0 0
261 5 1.6686562250201127 11.976351003169855 1.1195404373634374 0 0 0
262 8 4.002997094546858 14.838282275773592 1.3021335748358398 0 0 0
293 1 10.598105149719117 15.963478657538424 0.18966799627197642 0 0 0
264 2 5.478926842085258 13.321881459107345 2.5037385225872835 0 0 0
265 3 8.303351618988993 10.953782064721592 2.8518422700705677 0 0 0
298 8 15.097616286726328 20.20725081672908 1.2892208212080765 0 0 0
267 5 7.033371329609745 11.976579326918825 1.2551620367950795 0 0 0
268 8 9.446383567483748 14.52645731457435 1.5965258451407662 0 0 0
292 8 9.416454486900294 20.518105288378376 1.353422745012985 0 0 0
270 2 11.307874122498694 13.486928714984092 2.533044706179127 0 0 0
301 3 19.29745323607444 16.35410283942192 2.6073561882152627 0 0 0
297 5 12.170198141513733 17.378578280736374 1.5457592417858912 0 0 0
273 5 12.408031449236603 12.044859164699544 1.1339136178942282 0 0 0
274 8 15.06642804508561 14.858858565279771 0.9853866257367473 0 0 0
300 2 16.609285058812567 18.83281773405617 2.60840676772155 0 0 0
276 2 16.49287266993977 13.679931644315516 2.6029846798115823 0 0 0
296 4 13.26206583764542 19.173903160288802 0.18334789429325832 0 0 0
278 4 18.755975959962182 13.513823165984071 0.4146037740897268 0 0 0
279 5 17.746015206951853 11.897441698200739 1.8062063226326093 0 0 0
280 8 20.456035472604555 14.701520124162021 1.3532684998859024 0 0 0
295 3 13.717146731193203 16.024172533208784 2.5999370549154057 0 0 0
282 2 0.35004834293500403 19.239985603543058 2.631386225162527 0 0 0
283 3 2.836416761682715 16.425972373485084 2.5275611747420412 0 0 0
284 4 2.629575532210821 18.627159066355045 0.17261481500541223 0 0 0
285 5 1.1399922089383643 17.408942860282895 1.1301520190825813 0 0 0
286 8 3.8141011059669157 20.55228937125122 1.5507726050470072 0 0 0
294 2 10.680292259993854 18.946964572326653 2.369102801693435 0 0 0
289 3 7.896330196994706 16.03232734578137 2.246186168664818 0 0 0
1 1 21.54460885749138 21.608265800453477 0.08910543665458123 -1 -1 0
290 4 7.773151967778596 19.142460083062762 0.1825260310619464 0 0 0
21 3 19.319173443665928 21.66341996617496 2.8512602797742863 0 -1 0
305 6 1.3058610283157341 14.900304493485502 3.6464665287235185 0 0 0
306 7 4.258860476956767 11.948740907423655 4.027457284398546 0 0 0
307 6 6.515165319270693 14.640591237854371 4.014256606155237 0 0 0
308 7 9.855442004851033 12.538786452696497 4.079872282659399 0 0 0
309 6 12.680852521790843 14.74245454251491 4.223710684310861 0 0 0
310 7 15.403125115979874 11.951936701974308 4.142075370301004 0 0 0
311 6 17.88637151854115 15.154430523914405 3.6650146052300414 0 0 0
312 7 20.321440595700928 12.349561341840595 3.827387379985695 0 0 0
313 6 1.644580143262094 20.221375074117926 4.143278575551303 0 0 0
314 7 3.9493058240450263 17.644407901236935 4.788119389708141 0 0 0
315 6 6.651329878334004 20.680534769725977 4.254109994929851 0 0 0
316 7 9.302968602193621 17.5291089838122 3.697493117281176 0 0 0
317 6 12.216801143544316 20.204305044458984 3.786900019636255 0 0 0
318 7 15.27723203114195 17.5756816459412 3.8507253278967593 0 0 0
319 6 17.836492700842953 20.225025244795663 4.075662770269162 0 0 0
320 7 20.49839952869668 17.830549379706525 3.834613278630855 0 0 0
321 1 21.687907080067564 11.073211360825143 5.169564900493622 -1 0 0
322 4 2.79149902119153 13.628237856358403 4.851563569179719 0 0 0
336 4 18.83805761131015 18.5981917818789 5.445305706817001 0 0 0
324 4 8.074425006309802 13.625056408546621 5.209548013926677 0 0 0
325 1 10.958531192885529 11.098801054415162 5.493593396413129 0 0 0
326 4 13.965819723210288 13.190812974617844 5.543345487567091 0 0 0
335 1 16.565482761626036 15.889884541264282 5.269280044345769 0 0 0
328 4 18.89392786187758 13.570076034105274 5.1388057240850715 0 0 0
329 1 21.48044560861927 16.301252230580797 5.514437799358508 -1 0 0
330 4 2.5192917079099444 19.094799093918695 6.195017555853125 0 0 0
331 1 5.702353407979066 16.271258185811163 5.5495517446833675 0 0 0
332 4 8.254446033917338 18.869100200221503 5.244056425406241 0 0 0
333 1 10.972401832910244 16.402158775812993 4.9776091041231485 0 0 0
334 4 13.483927608263832 18.702633562723523 4.948268994049128 0 0 0
65 1 0.25917713983856516 21.638979387096708 5.344600242368191 0 -1 0
71 1 16.405918605213092 21.505592604326594 5.5632999023592244 0 -1 0
69 1 10.926632464545158 21.55298516083434 5.154953554763025 0 -1 0
288 2 5.108218619042869 19.116795849109295 3.1496916216640556 0 0 0
67 1 5.159210261563842 21.655098073799955 5.545397640712783 0 -1 0
337 2 0.13464065558157 13.658768412389014 7.880823178400268 0 0 0
369 6 1.609668964690771 14.91138901101156 9.2316555669781 0 0 0
339 5 1.6166122446128064 12.23305944040805 6.406725863648864 0 0 0
340 8 3.9975853134638384 14.778987585423957 6.5906362828999185 0 0 0
341 2 4.820480390872029 13.361047359755748 8.293954450191412 0 0 0
342 3 7.600643020580775 11.21429496953864 8.478886372070834 0 0 0
343 5 6.454146457189409 12.510297155609027 6.896612484962067 0 0 0
344 8 9.185556479596432 15.469269073180865 6.540949277930006 0 0 0
345 2 10.532902561196707 14.06808805215044 7.9634617558232375 0 0 0
346 3 13.114758713004958 11.111071236032725 8.425324668357462 0 0 0
347 5 12.146096127392923 12.586709725228673 6.935344606332151 0 0 0
348 8 14.835159738127597 14.944872542198459 6.589397342207242 0 0 0
349 2 16.056984257121005 13.583771018746855 8.056361235602767 0 0 0
350 3 19.227600619521755 11.114883512654611 8.242219813689093 0 0 0
351 5 17.804735237410362 12.388788461708677 6.874667316764108 0 0 0
352 8 19.9566886879469 14.942339003148135 7.100467355813654 0 0 0
353 2 21.33241288239498 19.08428676479527 8.180145317200498 -1 0 0
354 3 2.958002180988119 16.322952781759096 7.930186972977253 0 0 0
355 5 1.0060491773435365 17.54611995082269 7.211920690503923 0 0 0
356 8 4.086705776508645 20.357178828953252 7.400042494921875 0 0 0
357 2 5.358789090738306 19.02220712544953 8.728431894788116 0 0 0
358 3 7.997892306469068 16.10280592493768 8.455105255881286 0 0 0
359 5 6.701862296914707 17.813341238197854 7.164302945068946 0 0 0
360 8 9.853997380918047 20.164243639635675 6.602644363836474 0 0 0
361 2 10.7958915552218 18.850363783173695 8.174833702853967 0 0 0
362 3 13.593018311901869 16.054134122808748 8.089429853529 0 0 0
363 5 12.060083519676454 17.60903751533115 6.772037164061628 0 0 0
364 8 14.79287315979572 19.98859009553592 6.455030478912314 0 0 0
365 2 15.714617543923762 18.91614011977972 8.406962902521478 0 0 0
366 3 18.745096693180326 16.54255639974603 8.300899264814129 0 0 0
367 5 17.00115100313381 17.323190714133155 6.995891278606507 0 0 0
368 8 20.42578508752424 20.267700403508698 6.320355240074423 0 0 0
82 3 2.2483884538108914 21.624380647879576 8.371466353538475 0 -1 0
86 3 8.129011752170461 21.643434239639614 7.903204984706817 0 -1 0
90 3 13.633019452661568 21.478861461107307 8.024594636146473 0 -1 0
94 3 19.164954355118898 21.42353191973156 7.996433648247027 0 -1 0
338 3 2.848021791791295 11.060727700207801 8.00271309523418 0 0 0
372 7 9.400579506029418 12.557783352584849 9.295697266150283 0 0 0
141 1 16.330685690161125 21.60727671379092 10.515598177222289 0 -1 0
370 7 4.046164237533622 11.763175512389763 9.764844050607367 0 0 0
371 6 6.541300825147917 14.636314865416853 9.661602079196983 0 0 0
385 1 0.4191262415388644 10.913794044522987 10.45850955249732 0 0 0
373 6 12.377804956236426 14.683310859276203 9.523312459618007 0 0 0
374 7 14.9659850532215 11.985718115561067 9.465074187118946 0 0 0
375 6 17.24302593665428 15.20231355507779 9.467173450442552 0 0 0
376 7 20.578780872388165 12.515105701255292 9.689613673668099 0 0 0
377 6 0.8070657051256327 20.30713611117419 9.723763770710438 0 0 0
378 7 3.99662206838066 17.48996245941864 9.748204934276131 0 0 0
379 6 6.7128436431474485 20.5344111924736 9.59721907021735 0 0 0
380 7 9.640094939718026 17.513822565525885 9.560944572670673 0 0 0
381 6 12.296835188769666 20.256902772051195 9.573381472687128 0 0 0
382 7 14.688869090129128 17.172791909751062 9.881720405153203 0 0 0
410 4 13.281185778929961 18.696520782228582 10.949612800482726 0 0 0
384 7 20.198253523233937 17.856406756282986 9.823663962533473 0 0 0
414 4 18.601812843298426 18.970058409635275 11.191019125591799 0 0 0
386 4 2.7889248913409124 13.787704027321471 10.906587149216081 0 0 0
387 5 1.4245016238457828 12.456914161239059 12.006614240555553 0 0 0
388 8 4.053416604545005 15.193170379515292 12.282927524746517 0 0 0
413 1 16.040469095885914 16.016661180427516 11.447638675521109 0 0 0
390 4 8.464744646591472 13.896211889709164 10.892721088047564 0 0 0
409 1 10.920111796479185 16.191315975847917 11.124708122871798 0 0 0
412 8 14.391693681423567 20.549115136601678 11.969287967519477 0 0 0
416 8 20.3675385729689 20.0254877092975 12.363324026659 0 0 0
394 4 13.770607176603395 13.275201888693864 10.895220301454573 0 0 0
395 5 12.153293762895997 11.935379050769118 12.091924048048638 0 0 0
408 8 9.893131666406607 20.589989069931676 12.180111324747422 0 0 0
397 1 16.463813805144216 11.136183184930468 11.027412774238782 0 0 0
398 4 18.771282300160674 13.896676984556006 10.685204986324798 0 0 0
399 5 17.754352673927716 12.644195930908555 12.368471514722021 0 0 0
400 8 20.339719388389216 15.016660775695085 11.82462775426245 0 0 0
401 1 0.10599602613354975 16.25291811531352 10.491822296121695 0 0 0
402 4 2.4117820549353914 18.934493060807906 10.990466525539532 0 0 0
403 5 1.2796145552794378 17.233058661861076 12.125259180661338 0 0 0
404 8 4.097637393809191 20.337932248075123 12.19766132705123 0 0 0
405 1 5.712589832063148 16.517476150425665 11.208599357564808 0 0 0
406 4 8.503154688403605 19.22720173418915 10.748217836832223 0 0 0
407 5 7.4944438873072885 17.622883818753504 12.08654632168696 0 0 0
129 1 21.241337131541783 21.71875378237492 11.009091389505324 -1 -1 0
391 5 7.466621041087653 12.349426819392633 12.342633093715873 0 0 0
383 6 17.608877325133697 19.929629859037412 9.328121512203948 0 0 0
417 2 21.589960369856115 13.623725920632301 13.348168966630878 -1 0 0
418 3 3.0725532239103854 10.970842301214152 13.107835192739158 0 0 0
419 6 1.0456105374497242 15.094839054875173 14.894674415098251 0 0 0
420 7 3.9801445895049117 12.577267470442537 14.443057953040487 0 0 0
421 2 5.630851873579527 13.718573682901868 13.398722254482308 0 0 0
448 7 20.612479254447262 17.795297864398087 15.075251777119119 0 0 0
423 6 6.5585900367286625 14.664071558789594 14.911982067710476 0 0 0
424 7 9.792313004843539 11.752508219126423 15.164279372882024 0 0 0
425 2 10.912580955656892 13.251743897358368 13.602080687345921 0 0 0
426 3 13.849623680162226 11.058018128076586 13.44740905866448 0 0 0
427 6 12.036695485303767 14.862978309203593 14.913476071563272 0 0 0
428 7 14.62664849235025 12.533369008291439 15.071565891573908 0 0 0
429 2 16.391282790407654 13.545608330348394 13.98042753417978 0 0 0
430 3 19.070849716672676 11.198810223834363 13.707908744860607 0 0 0
431 6 17.885953073416758 15.094017355729312 14.99329108521968 0 0 0
432 7 20.644949892391985 12.14705132921334 15.034905102405434 0 0 0
433 2 0.28853175009792 18.899730704211624 13.328084862492691 0 0 0
434 3 2.6177388886385753 16.47015507619216 13.724373946870386 0 0 0
435 6 1.134673327050905 20.665893251849166 14.636316967583218 0 0 0
436 7 4.064737355600341 17.979553923264085 14.758691767483361 0 0 0
437 2 5.991828619424673 19.031746202665076 13.260350328285032 0 0 0
438 3 7.87124332716733 16.307169700955658 14.042872964568788 0 0 0
439 6 7.2858062920514834 20.30193613704397 14.86210566771786 0 0 0
440 7 9.678265129153228 17.165406878096743 15.139269406444637 0 0 0
441 2 10.559666443255512 19.073170875118894 13.913197827553121 0 0 0
442 3 13.52223704246664 16.20905076384222 13.872743338180804 0 0 0
443 6 12.186341568324185 20.440425647874488 15.07436892181486 0 0 0
444 7 14.879438542819623 17.71644790281283 14.85369495420939 0 0 0
445 2 16.166536451737038 19.00082654231475 13.36689008471561 0 0 0
446 3 19.488558587988653 16.348595347645 13.69650369568944 0 0 0
447 6 17.473905507145837 20.345043009309972 14.716386134232573 0 0 0
392 8 9.540002774260614 14.968955011152122 12.644946241050231 0 0 0
411 5 12.005807615295176 17.691761702911784 12.807056802080762 0 0 0
396 8 14.734637187422262 14.560348662535603 12.731069726724531 0 0 0
415 5 17.484104030202406 17.390403941363797 12.787316447730296 0 0 0
170 3 13.618118050028947 21.69680206761425 13.868258158277495 0 -1 0
480 8 20.77001539683185 20.389266399749747 17.5475782446875 0 0 0
450 4 2.648001617994893 13.708157404566414 15.976647700888037 0 0 0
451 5 1.5928333116947755 12.15657630999152 17.530674523223457 0 0 0
452 8 4.203114409922439 14.765338812362852 17.531366374241546 0 0 0
479 5 17.659732954530213 17.79185114511116 17.263755420999438 0 0 0
454 4 8.058442082003184 13.311458052810583 16.0378174051622 0 0 0
455 5 6.589265131341717 12.007804613460165 17.367902355240624 0 0 0
456 8 9.207551156922085 14.90324551354088 17.806766023384895 0 0 0
478 4 19.06703234200156 19.34880680923553 15.965822545031342 0 0 0
458 4 13.68040860104987 14.257219332427416 16.417486233526265 0 0 0
459 5 12.302597347836748 12.650256335259336 17.492084679252663 0 0 0
460 8 14.940258637825451 15.243494556141435 18.03506196797745 0 0 0
477 1 16.11397493897644 16.33196047864096 16.238019328679208 0 0 0
462 4 18.794579302835512 13.22620558685996 16.189953025224874 0 0 0
463 5 17.152047894547376 12.184752013640086 17.47110370318742 0 0 0
464 8 20.390668987351354 14.603829425063223 17.32112481063003 0 0 0
465 1 21.63574140820519 16.42856749418355 16.333542811225133 -1 0 0
466 4 2.7957754517308517 19.38013205680646 16.104874584069332 0 0 0
467 5 1.4611739519293807 17.978743000297982 17.400518824893865 0 0 0
468 8 3.840053740250549 20.718833162104623 17.636270645294903 0 0 0
469 1 5.206095998037214 16.285982154754592 16.08837665063512 0 0 0
470 4 8.396490086943476 18.644438122801475 16.493116366780527 0 0 0
471 5 6.540178776105562 17.630381553322714 17.429344809833506 0 0 0
472 8 9.348485839127411 20.43247495014424 17.654621930407025 0 0 0
473 1 10.93323448697748 16.071210832857492 16.74314608493368 0 0 0
474 4 13.383206851764742 18.967251337997 16.350277922954792 0 0 0
475 5 11.95483205986022 17.84829870878909 17.90959235179201 0 0 0
476 8 14.751374916225377 20.41845399260791 17.607126713807048 0 0 0
197 1 5.372705679379949 21.400238421096656 15.878248960531822 0 -1 0
205 1 16.473143608625616 21.52010115133454 16.496161220623243 0 -1 0
510 3 18.941110870469316 15.984705890622827 18.46285564065441 0 0 0
453 1 5.1376095226744924 10.934704932599523 15.986229404252747 0 0 0
238 3 18.976297358769653 21.637704515879793 18.485151582756515 0 -1 0
501 2 5.597166489667951 19.44086970170648 18.541595145577 0 0 0
481 2 0.19038755855717682 13.219318699857634 19.043755827004194 0 0 0
482 3 3.2122189243374213 10.93200632784008 18.81161614676341 0 0 0
483 6 1.6181652741865487 14.99054592171938 19.857954992208857 0 0 0
484 7 4.522260254065203 12.481851648685595 20.345491324177765 0 0 0
485 2 5.773458487708964 13.608586157857397 18.852229361444525 0 0 0
512 7 20.01703285182543 17.287482683491454 20.110573759530386 0 0 0
487 6 6.873281195086212 14.876761312546083 20.815698173872963 0 0 0
488 7 9.538265583751967 11.825300991481678 19.941369691469788 0 0 0
489 2 10.799704918671257 13.695116482891896 18.971203492801546 0 0 0
490 3 13.331206285303825 10.862891645130032 19.070272951830866 0 0 0
491 6 12.028763738778819 15.260544416599974 20.224809577419553 0 0 0
492 7 14.909464081243039 11.906822790926082 20.50511300799716 0 0 0
493 2 16.17534161006796 13.456808645435204 19.16015882130782 0 0 0
494 3 19.000862240737312 11.312456701874135 19.073136243920327 0 0 0
495 6 18.08400120943178 14.536100316576146 20.10831863438189 0 0 0
496 7 20.4210851002507 12.166607172011245 20.710571371984816 0 0 0
497 2 21.52666510915705 18.93125175803951 19.254966066256532 -1 0 0
287 1 5.023439823725967 16.374035528338307 21.561250591485777 0 0 -1
499 6 1.3521526137119873 20.173417915193312 20.630683275591192 0 0 0
500 7 4.180779251308358 17.921594748474373 20.039079635385114 0 0 0
299 1 16.493250739576226 16.167114339993454 21.233155225109687 0 0 -1
502 3 7.725853774065668 16.376987382348325 19.22596450099903 0 0 0
503 6 6.9593032743064125 20.635600649764687 20.146721000062627 0 0 0
504 7 9.17288437026071 17.60810426618685 20.8662885688956 0 0 0
505 2 10.758081389725222 19.331424432388506 19.179296220781882 0 0 0
506 3 13.595015049987575 16.86523234231105 19.22337717397747 0 0 0
507 6 11.976568061912008 20.735596124533373 20.680277461562355 0 0 0
508 7 14.906716063471368 18.015823054362276 20.725571799329852 0 0 0
509 2 16.07617046308516 18.87901924492802 18.853260848392697 0 0 0
281 1 21.542863020962074 15.773233268794286 21.283971447637523 -1 0 -1
511 6 17.858386511832236 20.1400887400652 19.93025423749523 0 0 0
19 1 16.681831065828806 21.325760170185248 21.58070291242515 0 -1 -1
260 4 2.6200909106156427 13.44774002961843 21.2582516596598 0 0 -1
302 4 18.971300130437985 18.805070420290754 21.537402198681853 0 0 -1
266 4 8.549063016704512 13.04769414803177 21.703605406262252 0 0 -1
7 1 5.377945050897932 21.583266970923976 21.717286833210483 0 -1 -1
272 4 13.47100853269125 13.725873794044373 21.46405278827386 0 0 -1
498 3 3.1362433999774377 16.457774971730263 18.744268525718898 0 0 0

Velocities

277 -5.6876957460669875 -0.043794079650066535 -0.1285705096784603
2 -3.5594534072609814 -6.564789301273363 -6.21984149889617
3 3.3304141331326123 3.4755856097410733 -2.331441548694482
37 -0.8245091239485369 -2.6868782349088054 0.7493970896855192
5 4.645345986440678 -6.698280612218396 5.879570864925288
6 2.219368356609369 -9.250090658004973 -3.4468144572592987
48 4.24676635207452 4.099758613874138 -2.353086662237029
8 -8.086818969075658 -3.7503536236563835 1.6684998295875917
44 3.1740510513956073 0.7258218438285168 -1.9753533127636613
275 3.326460380776876 0.2918285827808341 2.546186960918891
11 -1.0339004619958467 3.7250134025126704 0.8587661865497077
12 8.217159230628093 -0.41084216383523836 2.53127921375984
13 0.02493433347523069 1.6757001249958272 0.6391911490836876
42 2.570366436753886 -3.3328312370657724 13.085898092452382
9 -2.473816938019619 6.073446491880269 5.270129156246146
16 -3.7753803251882196 8.529166192145132 4.605307318118446
17 4.587505666801078 -9.413195417266556 -4.668545213806745
18 1.9602257167144157 -3.705888525228436 1.308687145423905
47 3.4493295051043735 -0.38596306298274413 1.2159994759153294
20 5.018429512894871 -1.421613113228333 9.352734644104137
46 2.9508062040236616 5.338735314369453 -1.873782745114864
22 -3.79176365297331 -7.525561425766514 -4.2154754272268695
23 5.2306241250032555 -0.015255643193804416 -2.7686125816598266
24 -9.541356255194923 1.9039799362906038 -1.705521929022141
271 1.2685157040045978 3.9679375603055975 -4.917986189973619
26 6.948423974942496 1.580005733824287 -2.0430830848751165
27 4.450031169733005 2.8851159766786467 -2.6592182502826764
45 -1.6687847042325736 3.1486074592996562 -0.6699418516610953
29 -13.728766173398983 -2.4571759050237536 0.5014792259752365
30 4.509190993911314 -1.7310289851333656 -2.321405765485373
41 -0.25035069629218865 1.076808377450568 -2.222460522211256
32 7.934507698108223 -4.1577322333138085 0.3536210486125375
33 -4.326208005237639 2.7388883673726867 -2.0072024565231334
34 1.2893232108941914 -2.1582483756471147 -7.137924308080753
35 2.3598760913545394 4.850549813033237 -4.945087177688311
36 2.5265168716687545 -0.27415149669402133 6.182019348619503
259 -10.82994185359659 -3.50910145252648 -2.389005579326049
38 1.3009299867382884 6.425541285920628 3.393489357721751
39 0.7064572593615364 -10.213603155239372 -0.9349791217290842
25 5.577198830492805 -3.824577391341951 5.302068554694655
4 1.6063225117884632 3.413485432464335 -2.3752762508586605
49 8.798727926313786 -3.153539873161815 1.4760059193520343
50 -7.2080207958442015 -2.4697363993905643 -2.836587894969186
51 7.445717136082127 -0.6866703057023014 -1.1164781588387105
52 3.2478472426748892 5.869728689742067 -4.086386442317396
53 -2.36016808116877 -2.5878048819638595 -0.1502972563911924
54 2.0590789065924406 4.9512735767311975 -4.745468186400287
55 9.813716025741334 2.4435172976061375 9.749108783341836
56 -4.006623600465885 0.9852802509476491 2.9353487386351613
57 3.173807736079037 -0.9179313846347023 -3.26423369906753
58 1.5455012251204825 -1.2399500604590479 4.8538196429406435
59 -9.554743443178486 1.7491928227180527 8.100240502871614
60 3.318436459434722 -0.9507362554640801 1.5771300399879575
61 -2.1293186972375717 0.58820833573488 -2.8894989317013873
62 6.552419330418091 -1.1576789145916089 2.5557966346885492
63 -8.246816739558819 5.737542129071525 -2.0207607574986732
64 -9.865299157262866 -10.180627816653127 6.233174118535779
80 -2.7048046572874 0.2638166366259276 6.748238896069016
66 3.9195179476345925 -4.000018184720074 -6.060727659747003
79 3.43420447030394 -5.948121887356539 0.026004344532162743
68 1.0739395722419327 -6.531622827889488 2.648774344540661
78 -5.672561020857372 4.180094715780971 -1.146119735751253
70 -3.5909511402111645 -0.9168536143017113 -10.424384541366386
77 6.417725307106508 -2.6704046463116575 7.113363636735517
72 0.15013301667544765 2.351337153818328 3.9257035720964755
73 2.22307501963186 8.946049487373818 3.8197300095824733
74 -2.0247688977821983 1.5442793073611762 -3.2219417106131467
75 -7.49522110196121 5.38190318657553 1.219166163633263
76 -6.24508312116196 -1.0559075346357805 0.839495615912439
323 3.261357524597485 1.9880825091850591 -4.1776058460725345
327 4.74909932677903 -1.6757814597297256 -0.019472451104574427
14 -3.65998308935184 -9.959570051103974 -3.9822520718755086
15 -3.6952218651906765 -1.3465658445978246 4.299781182071412
81 0.8219956626421839 -1.1476726008186688 -4.283827074520374
112 -1.5627681075170756 -2.0540665704438177 -2.613379736383232
83 -4.7935290663590315 2.661538516812913 -3.3476217272466395
84 -4.296670803327688 0.15183583991355876 1.562053157041576
85 2.042169856283162 1.8566071270870876 -0.1391419899127313
111 -4.513082578059065 3.9619214067439743 -12.536328435189143
87 -9.816668823109497 -4.410187719618759 0.8721394646812779
88 -4.531825240454418 6.611336283239504 -8.158991345131597
89 3.800193415534445 -0.9827447615640119 -5.729413288795851
110 -1.67343738296503 -0.957958451212055 -0.8992619160320405
91 3.3618133856700196 -5.608773364717279 3.0892994308566997
92 1.5776037653447452 10.987565154370149 3.3328822730646177
93 5.9945872310904065 5.171925096701659 12.807851919922397
109 2.033466550136955 -1.3560564037525014 8.891500731864076
95 -1.15699910159477 -0.5112870401327283 -11.628379966837382
96 8.725777304938347 5.989969050375081 -0.9044111383499569
97 -2.7887755911175733 -2.0580754234470704 6.14990741110578
98 -4.034001139313714 4.87905528244723 0.6980320840247849
99 -2.5073364235936486 -5.459803089835114 0.4384365190910364
100 -3.74724467178474 -3.873451932040277 -4.217135637738692
101 2.8434520229541618 4.84628888839842 5.275834193108947
102 0.5118697959728816 -0.1871599260443778 -1.207608898517536
103 2.2641273369669137 8.306238650069195 0.11591378250951419
104 1.7028135751235525 3.1405061662779055 2.5910291740475446
105 -5.0539564212236465 -7.763538404426722 4.0844623175996055
106 -0.4359721970859203 1.61475200903456 3.242006712162793
107 -3.9299586786087164 7.437426951054206 11.828739988413298
108 -0.052395982318048914 0.6559359685754075 -7.6626455309825445
118 -3.747768504569856 -5.217728682026915 -1.309111686965663
121 9.291412465534966 7.1941658303982345 8.400729021473774
114 2.3952135729594075 7.7864258089127425 3.7791569051618343
113 -13.043115269425241 3.341816247064524 -8.792804895472738
389 2.6512004455016385 8.259907096316391 -5.559198436727392
115 0.9472083275858031 -7.770109561069534 -0.8932721612509862
116 3.936156881156352 0.7068499794391843 -3.5570676198909608
117 -2.982563466410913 2.721452504816228 -0.46296290781865584
393 0.655907632362502 -5.530872484597188 -0.3748144250234059
119 -0.5383827006085375 -4.359557677112878 2.510173619657809
120 3.9554975468730253 -2.1691087959014226 8.057287853952825
158 7.378557572194538 -2.477399091990149 -5.344273050635403
122 4.051355780930271 -3.959176318297349 -6.66400799805334
123 4.098720484136933 -4.306476159641849 0.5281390116419666
124 -3.1872395463946894 9.65817086925359 -1.3939172968919342
125 2.0081358141483507 -3.0871051179160123 3.770772773878616
126 6.024484307640409 3.612135010891131 -3.1590214632907676
127 10.35543274407637 4.428572379353907 5.28476242698791
128 -8.706223900782465 -1.1261604070657976 4.33139454668437
137 9.359139707165266 -0.6344008143618964 1.4891361721674676
130 -2.2336961150352725 -0.4565802042999103 -5.676034851675443
131 -1.2913520784867767 1.7200954863972304 5.312883102885955
132 -2.6308531412308254 4.179045107507594 11.816742798651287
133 -0.00390979349996418 -5.229897150241467 -2.57684792044572
134 -2.4132125987821063 1.4790490908400995 -6.999958478950591
135 -5.291746625124541 1.9852203286765462 -0.6562921517370417
136 2.4731086492619037 0.5924643726369548 4.804537373737073
160 -4.61413859136248 -7.872889656565706 1.0858622889390288
138 7.932981094809897 -0.7079687001769428 -5.061224676601593
155 -0.359131417209042 -3.7951880971327614 8.859956215402635
140 1.940872565474796 -0.3750079234867815 4.765105274810089
159 -0.2491870741323806 1.4768969250872455 -2.6434940073758257
142 -5.83112032455498 3.8658491795844387 -3.680612280092057
143 -5.524126836346237 -4.017911473224872 2.427284222084795
157 1.4746155027033945 -0.9968609232220147 2.628513484530276
145 10.35088945057218 3.1652772457133436 4.589412742787398
146 -0.5782883606720444 5.471380893209221 4.579611727783611
147 -8.129273294938567 0.8918415532427516 4.29268223825444
148 -3.3910917094612003 9.7036031073609 -2.405941709680566
149 -0.9968979303165937 2.7265379336434226 1.7858308290881315
150 1.0013969331233812 -3.0714624373826878 -5.3673310022657015
151 3.2320846703120623 -5.0933163184563215 -1.530942060173177
152 -1.3573166575609086 4.175705495509396 1.4517351833594516
153 3.4391450850788727 -4.815274888170547 -4.9994272045452695
154 1.0209690414779888 1.6425820199320527 -4.130232550248286
161 1.9770665557532132 7.73668897402673 3.53126913524502
162 -1.8341324677793782 -7.625961583030186 2.9118747372692755
163 2.1216817115919233 3.3960197192882355 1.728977503274048
164 -1.187086104544243 2.242418722471285 -3.881473513868869
165 -5.297783138419045 -3.5517566591886722 -3.432882856161622
166 6.6002581797202335 -3.6060391522815656 -1.0192323957564566
167 7.478169364335937 4.790077086615167 -3.5361589776246074
168 2.2584861111328425 3.1615725567379567 1.215394156035514
169 -6.6499002487288585 -8.325203886075723 -5.010298394281218
422 6.633734784186 -2.579074351545585 -3.2170203431689646
171 2.842809735780217 4.090714889921562 0.9876035887184025
172 -1.2335686522528577 0.6320440743272737 -3.895767502299777
173 4.658948700056983 1.5835158766394644 0.3403459220620731
144 -2.2228386936940145 4.385039202349671 1.0775895037236356
175 3.9712303708867958 1.2972528640243415 1.6538363326570586
176 -2.3307209677335896 10.680072306921922 1.7358916844682686
177 2.6805810371537264 2.728740440044251 -3.0750977572527685
178 1.1326250395047341 1.4900669235877764 -8.876106540947474
179 2.246398796024408 -4.297278799948021 -2.38161608538848
180 -7.874031858757449 1.645871274412786 -4.947815675542565
181 2.718777208533957 0.7477028635332064 -3.065511429562607
182 -1.1246661887327105 1.108213684558785 1.1406486575170651
183 6.48260293461881 -5.054019879687731 -3.137208855469921
184 -3.7029494576984723 -2.5921886632969136 2.6386945028491935
185 7.390098024017869 4.345101111045758 1.2809353413313
186 6.354848133743143 -1.3090434963022817 1.6378754075964934
187 4.597915300082506 3.2169427738268386 -4.263211242055337
188 2.4680082898014155 4.1247760936860915 6.705491902852661
189 3.545457305440317 10.912679696813347 -1.604924219221868
190 4.849568419527261 -1.8423317760156233 7.3224911590701725
191 -5.014859395774259 0.3775291070584287 1.6162381303446658
192 -5.64686955934403 4.507435308334867 2.746070571002574
174 -10.27703476352086 -8.276853599300145 -0.9631280929723072
139 -2.8385323939188147 -7.755610592603033 5.781344464187949
156 3.1786919976032615 -7.546247928310161 1.7656497215053752
193 -5.223670758237011 0.48213670781452816 -2.1865327816032165
194 -0.3840721263089516 2.991978730345387 6.827625110881084
195 -7.660317152092519 -6.214993298245993 -1.0845997825287998
196 -2.7682821655990666 1.4596438508731673 -4.460688065376802
224 -0.48286435011148565 2.5596946549570174 -8.010584787589583
198 -5.704976181954918 -0.9561149799751286 2.166212896163655
199 6.974213396788852 6.268811822557088 2.2962644700897434
200 2.3276619029199312 -2.9948326296548666 -10.787468187958957
201 8.824952859198518 9.602844815294922 -4.030128626013999
202 -0.22562568854776915 7.792750316304003 0.9413718094711346
203 -6.611070838083467 -5.854032412158671 -0.3838568342322575
204 10.990892246421751 -7.820046591889207 -4.843475686147902
223 -2.7423022468823097 -3.671405701938702 2.924365283746066
206 -2.7744270520510854 -8.09529589038493 -3.649178244286438
207 -1.72977799340579 -1.26087593677364 -2.404735014802695
208 2.7722755956601612 0.6645889100866396 -0.5694876501356988
209 -4.125723587775348 1.247693801049046 -4.483353052262101
210 5.515778302873451 -4.073401933522267 5.023152092531129
211 3.5699032124461447 4.178226132555152 1.68359419440854
212 -8.645846972419562 11.508725961222087 -4.871047037398361
213 5.256582320935578 -0.8984482862743951 -1.6868298431514481
214 -4.541886410549482 -6.776685473319739 -5.770656031070476
215 1.9555775330982546 7.5884421359773535 8.759525138588277
216 3.1235897460844737 3.151440518523557 -3.7288033708718897
217 6.591476441361091 -7.645073390244278 -6.59986728838028
218 5.3620242000832485 -5.76368490894671 -2.4060381912460493
219 -1.9649662519462692 -5.125463136125427 5.233236425554797
220 -0.18064675103202446 -0.4366972604285915 -5.313965215317162
221 -5.868318250322479 -2.011311926935089 -6.058683478646839
222 2.765681014938864 -7.861863998557032 0.6421449879201065
449 1.3981392796388097 5.83751053827648 -4.587289355499132
461 3.1833462465179796 0.03867505211187909 8.087563623520024
457 -6.356658391698462 -1.282814008762496 -3.3971357644014875
246 -15.654351212954133 -2.666370691421168 0.24658100744703057
229 6.5469912458821415 -3.348200854539686 -1.702474174013302
230 -1.4899848337846593 0.39301979155060757 2.1399192222966255
225 -1.3859279805806293 1.5783145546672641 0.04071589121280278
256 -3.3277929524374787 0.6734292245230207 -1.9020603605456365
227 -6.289470416168276 -3.3445844565434943 1.064343214317697
228 4.464348215983716 6.441798687840259 5.313225859068558
226 -6.1508411149039235 -3.1389792671093004 -0.895222705367633
31 -0.5106233468198321 -7.094936297027479 -1.7057794039153218
231 -1.1418583973113061 -1.123788113537604 -0.15324133577521062
232 2.432726943302447 6.71313565822433 -1.2679565176591727
233 1.9760553021531249 -7.841713313813955 -0.13608591780895068
255 0.9244288514784406 -2.8495783826284633 6.976035255502556
235 -0.31878297020821084 -0.8571861451455984 -0.7183209200085044
236 -4.183189665960885 4.979196619206176 3.381530840798639
237 3.3502106833042147 0.020586913802929138 0.7968356908941349
257 -0.36237506483072646 -4.1785748124488125 0.17951024752233016
239 -0.8634164220265569 6.485979918313897 1.2137574577637762
240 -0.9864729308131176 4.274690860495881 0.11906036683003819
241 -2.1926789697193336 1.8304833738856774 -3.0230958388597458
242 -0.018992480666283534 1.3611068790513392 -5.998819819590075
243 -0.7239942533999211 -3.026083487965457 9.612396939135515
244 11.832278669992652 -7.800532010651995 -13.350021372195759
245 6.418204319681852 -0.02725193935340616 -9.621388798480384
234 0.3504193633537727 -8.577732600067943 4.73694319348604
247 -0.33611793009193075 -10.961491313161702 -3.353574034721847
248 4.00773961035552 4.068113934310644 12.652702024023958
249 -3.0398688330647046 -4.554193617400871 3.75737088745835
250 -0.4926087212815083 -3.6545179701930635 -3.2357557597390025
251 3.654101026235328 -5.2813236501715775 0.9275978358998024
252 -3.2411015798389324 -0.15563317753240313 4.3233492794313415
253 -6.750968933398671 4.1914865997610615 -2.8178423180727177
254 -1.9075611800188241 3.6276686099179343 4.962675072349737
486 -1.0098723284688813 -3.718484814263938 -3.2680894278465487
40 1.485494320195281 3.998316023650577 6.44087845052877
10 -3.8412731941135756 -2.763396445079391 -0.16114745346357073
43 -4.719294877447094 -5.704707560564792 -1.0664237782882882
28 -3.3613814937523205 9.530020731365392 5.617213404080344
269 3.8807780491791206 -0.4232959438177685 5.836234354542278
263 1.4713413552132115 3.192202290177155 -0.7326958709044565
304 -0.057069651080367816 -0.8013160413084818 2.533074540710868
258 3.0497857081625437 0.6092285766341023 -1.820959509088095
303 1.25716215414829 6.5729237945484655 -1.7270972380047405
291 2.5041286641137614 1.5552763177864282 2.1104593806858567
261 -5.935952434169554 2.186380041174806 -1.0088691360421613
262 -2.4674561676339426 4.895567771191426 1.4290158791715064
293 -4.251395799378433 2.6542024896177696 5.273329927973347
264 9.842974952780791 3.7966857735472823 -2.278792282813135
265 6.3980109602376 2.6110939817133354 -2.7469855414844
298 2.414884365269699 -3.18238178103805 0.20347752969470945
267 -0.6243596370818759 1.1490903051416503 1.954668949252132
268 -7.2068625022330375 -1.971208424183027 -8.12187027601187
292 -6.517129429176083 1.444092680477976 -5.237270834409622
270 -2.172338872713689 -0.721647709692767 -1.1705209326416346
301 2.243790540355786 -4.9251574843540515 -0.19198254798667702
297 4.4546300120657 2.841127957197227 0.9656217091461051
273 0.6286930072890703 1.2016758124691833 2.604522347248146
274 5.638074933181575 -0.2893924018234408 8.017653121890133
300 1.7665001458266238 -5.3532347405540595 -5.4558277649613744
276 1.2106913535388824 -0.22093327603090837 -1.7366258014661797
296 2.7558311714548047 -5.647482392409073 1.7662006861069035
278 -1.1008999249574816 -6.830611301053174 -2.420489213371239
279 2.6370960397440695 -1.4157580704535664 -6.680241960209165
280 3.3617358622033144 2.7768607303854926 -1.9164356285350082
295 10.732953142329945 -0.9536924337044792 -6.819427617863697
282 -2.3139490174290405 -0.6960454605072142 -1.6530114973898105
283 -7.114996463224517 -6.492851394820276 1.3504088230590805
284 -5.209362906224717 3.6874955004332652 4.924081938399119
285 4.762668028423591 7.672076491388439 -2.8289235326323507
286 2.435106150652358 -1.7423392732523835 3.004463878783307
294 0.23780442874146693 -11.761969173163791 10.172169553673497
289 5.669019666478842 3.6814289958414625 2.73625225006827
1 5.123559089796458 -1.983633009413437 3.042415666142349
290 -3.3284011515357403 1.2668401885574958 2.8313869681691552
21 -6.045079966597313 -11.310117711779805 -4.24018276733435
305 0.20803804098531703 -6.943433075782272 1.7210117001382328
306 0.357817956504876 -0.2038656976023482 2.7902655748573424
307 3.282126466977708 -2.064356952358001 -4.177456270205597
308 -5.689122037224283 -2.0588162592053876 3.8857648376476646
309 4.540302996077635 6.86013622270435 -7.134314367628972
310 -5.088313871971127 -6.67634753309671 0.5922728707456457
311 0.6990605547090244 4.346702480843563 -1.4051668564864128
312 7.079745391349675 -1.8430176608305056 -1.035387409794615
313 -5.93815974122835 10.309669828807033 -0.5271272557459333
314 5.2931186255508536 -8.170586713852288 -1.1469531500259194
315 -3.927072067865499 0.10880722534169343 4.191074491522481
316 0.5296568489755531 -3.5095504158646493 3.737029082263813
317 -7.597912987020387 -8.37653944389603 4.537689090804036
318 -7.007961399449853 -6.728781098467267 -5.857050531365494
319 0.8693118979324735 2.407628284417893 -4.641586646977535
320 -1.2178630838004127 -11.89950779770317 -2.634292261058995
321 -0.6504118601993044 -1.3449949520581077 -1.0340872932962237
322 4.039760715959088 -2.03954811722477 -5.488298121136549
336 2.819817174469467 7.752589578977553 -3.502327320560932
324 -0.5590288265177196 0.8296339463889018 -3.0493891270036673
325 -3.190450646055814 4.373454266331394 3.631487129648794
326 -9.222833599204817 5.888619536736217 0.9065958146277185
335 -4.042721855220639 -5.712039887427679 4.235627165771297
328 -3.1000120922558807 -0.15270754448707266 1.9974274096632427
329 4.909964363607846 3.198695845428683 -5.801795297821304
330 3.631641966622055 3.1192086348155383 -2.052375718987401
331 -1.7508250984159692 -1.2730304184747745 -0.8434462062041737
332 0.9655642552227979 -1.5268601505016925 -2.6027081545215704
333 -5.159609818623741 2.5103028016273923 -0.6030303179287918
334 -0.6214715362332127 2.0132825838969977 3.9102921199419858
65 -0.5306928533187721 4.891837983945516 -1.19177776988572
71 -3.552639799211669 -3.6756233368236964 -10.071199015079578
69 -10.860230208257105 2.419264906681819 6.703432504686886
288 0.1326115020868316 4.099521158923916 -5.688396983405665
67 2.96642558808319 -2.479289953361201 7.071920216254236
337 2.6749031103482146 -0.3389648674940878 -6.10047569764323
369 0.7181913686729625 -1.2091396957628104 -5.091927073445801
339 -5.694340841504693 -0.8850544222655647 0.06300089567285194
340 4.48824717212507 -0.709198989432586 2.3974134868004344
341 7.3666674118411795 -0.17163045611018907 3.485216191160293
342 3.8106838620113637 4.633258450367462 5.3551212511598845
343 0.12982509450736882 3.3062714776622535 -2.348398370810259
344 5.02995303648832 -4.476337510718115 -7.613029499819878
345 4.48229877605851 1.7161986574638086 1.934638085356407
346 -0.07021081944143222 4.285005198555166 2.187329395645743
347 0.5937006853591926 -5.9530747097690915 -1.1593149713988244
348 4.686869847822476 -1.1619350112449354 -2.351106751554091
349 -1.7179257086924253 3.5037050176229942 -7.27449967447927
350 -6.865350985316145 1.5654557674204927 -5.808134821619562
351 2.8413886668410635 -2.029491938457513 2.393260288815578
352 -1.0671471731562723 2.9229340235720436 -6.114511576592036
353 -2.4703497872996794 -1.2662730751697555 5.966579163751564
354 -7.20734882508901 0.6124654000049649 1.9190066348201964
355 -4.071699236320671 2.0434231740722315 -5.77130882241971
356 8.974330641007835 0.047221543841487475 -6.54089798102951
357 -7.649995593485164 2.543226351433737 -8.286412421716802
358 -4.366449750837308 7.400571638022127 1.600417454702096
359 4.404018976295927 0.8312183481253307 3.253454911756214
360 -4.855709500804823 2.2896607029679656 -11.391242400393418
361 -1.9788620756623199 -3.3319423521432823 -1.697184240417761
362 -4.24757976339902 -3.5436720076682766 -2.43616960642085
363 3.2977682249486198 -14.131771924534167 -11.522892521075331
364 -3.7363734029239857 -3.88972227863443 -7.47401196238051
365 -1.0945799521142032 -3.8746771545470167 -4.414630348475246
366 -5.341192633003143 -1.9119592470826188 -1.586618644473795
367 1.491758398551972 2.684144119281957 -1.6993690787808229
368 -5.624628532675432 -1.9664228201118423 2.7739136228954324
82 0.7797227699523238 3.264304669212513 1.6343371617195988
86 -2.7207129174060705 6.292109118537573 6.38077368224039
90 -7.2791295306899455 2.2449052635983824 3.1735329593714203
94 5.416519951311514 -5.019415690486182 -1.3194182256253795
338 4.832034097353126 -2.5106579348282994 -3.362163677134347
372 -4.817496370850169 5.02976177487311 -2.293517576509756
141 2.874845564061168 5.331590345568539 0.772311423599442
370 7.3884125247465215 -0.02961941219466972 4.050422307974358
371 -2.021046343022135 6.16665457971906 5.074548806195065
385 1.938101440455391 5.879414739512121 -9.004565783297258
373 -10.699405426960737 3.8880414544003195 -5.074215761120147
374 -0.36886396534684956 4.5300985716617905 6.276790978541749
375 5.081083421966406 -2.7745583922694825 -0.6548657215860585
376 2.1173036515529566 -5.678416376658266 -2.0030246460150947
377 -4.949641056480211 -1.9681403101869257 5.847403020685501
378 0.5866022405120489 1.3784050521948628 4.7041957428661085
379 -1.336468563285731 -4.502536297396029 2.482741211653688
380 2.0808217543264047 -1.6148118907545252 -3.5838226764905317
381 -1.354510261427093 11.761811695235572 -1.199456150281374
382 -7.076659493496662 -1.7061719621417073 -0.0968986884860943
410 -3.8810555313767816 2.848111182309644 -2.281908442046725
384 -6.6668332232468455 6.200508538805918 1.0380807786524318
414 0.5079109095670203 -2.2446075639120187 -1.4239894289158477
386 10.461932765338549 -1.5733705961047204 7.263564679168167
387 7.117725304278742 -2.122181467616114 0.8843307378084582
388 3.8662077543526223 5.666492053341104 3.05948652006994
413 1.622427461734767 -0.5403400586680441 1.4787714178174474
390 -4.181117943953863 -4.336123545624685 -2.2494612662972724
409 -3.2517796625240005 -5.967703120176019 -1.039262571702744
412 9.086775897453586 1.8347603266154235 -2.7186908666105003
416 0.49696793274910883 1.4295079896977996 0.5811390480567996
394 -5.1449899591961685 0.5331549168650861 -3.7612139487317635
395 7.364935715772439 -2.234672920582702 2.1815844621481495
408 3.1439255990622437 -3.849558274962876 9.944556905803939
397 3.0604500590309174 -3.2719805793889374 4.5598580102253585
398 7.293397145328034 1.8626027811501413 0.7638250421511075
399 -3.2748881618898458 4.92960540760374 -1.1088110031781928
400 1.4314856651879444 1.1346574889451562 3.2821201735732557
401 4.139566993466629 -4.770433558131824 1.8520885075796714
402 2.6727661872395956 -10.95956231843801 1.2635049713816477
403 -2.2637502170138197 8.191392719710274 4.035599097028978
404 0.3617250631033361 6.261713928447905 -3.0041646095248344
405 -0.8902862058445584 -4.949001448736758 7.672041016638071
406 -6.7522091142900305 -6.2129490999366075 -0.7601695197728774
407 -2.5886636122151407 1.9374560294933472 -9.315377260895726
129 -3.908100189052537 -3.8083601883562603 -3.643282991595699
391 1.7262839475988565 -11.884233207625995 -4.298243452968545
383 -3.6733507239218453 -1.5637276988446764 3.869833180401051
417 6.188907987823576 -10.284951522266788 0.03436845197119603
418 -7.368470972058574 -3.809508659962369 -3.952677902293571
419 6.706633457824578 6.148996753648486 -11.780678922908074
420 0.0072507652500694185 -5.374777473933122 3.5639155037116725
421 -5.197843584423079 2.149962855788885 -2.273788674044116
448 0.583056312220929 -2.3790969067630874 0.13130755217805448
423 8.066720642904137 -3.9160078285808337 -0.8216800019018352
424 5.389157043097852 5.520921836282684 -5.20117532770287
425 -3.975723312700065 2.129597326045792 8.531504682981211
426 -3.244209595028781 -1.1466965329985652 4.382085265448706
427 -4.887406873657769 -2.9037095626951372 7.764728788367873
428 -2.3540712595930886 -2.2393267183852212 0.7352544166933288
429 0.8489073139517136 3.2582989679174044 -1.4289577044731017
430 6.909324661229338 -0.7314888524862607 -0.8325619968834181
431 5.770073888374653 -4.901774802645629 0.9420475515582205
432 -2.053576696120864 3.4364039536037856 -0.8654863974122768
433 -4.044879675940861 3.0480030525504755 2.856530891523077
434 3.9434224180367345 -0.5318132637046399 -13.892126243845304
435 5.927138918524647 1.8162076985324396 7.599623810763407
436 -6.128015667254797 -0.9145384438743714 -2.7089285862184176
437 -8.197380176684854 0.631591712650228 2.5377809888630836
438 9.45246919158936 -3.551378694401421 2.2501276507857155
439 -0.06175665559239884 1.3551781209133014 1.034173689086577
440 -2.627845007030766 7.130454466474382 1.8613881971397208
441 6.1159807689981145 11.981926323651448 1.5620398230357477
442 -1.1837462322668795 -2.2939450264169152 -7.40307731817382
443 -8.488523111799706 -4.713986826233518 0.36152178668506807
444 -0.04815068094573915 4.015462107888645 -1.1792164443658562
445 4.235374505279122 -0.9252558277572192 2.7408324436272284
446 -12.546773081100204 7.8141355629253715 0.9015653942433712
447 -8.362607950839928 5.473267567009314 1.1737162285519007
392 -4.513457043947354 -5.16530262020673 2.169446649415571
411 -1.548636363541472 -2.541927657399332 10.970327117245134
396 -3.419614622015681 2.347838216035806 12.85059104476127
415 1.3586663902818596 2.1688283991042288 6.732552567638826
170 -9.101910777150403 3.893857432557085 4.283846569003059
480 -0.6494484056204747 1.6094773938213789 -1.7322907118407664
450 7.5850675349610714 3.150115398787563 -0.19383628045658383
451 13.69375424127141 7.482428728457075 2.722168490737365
452 -5.7616713314052115 6.96448668203373 3.1667751416317196
479 6.536826770996821 -0.19410332357437446 5.008183501777124
454 -2.554218078461105 0.30366810266587674 4.628933666480541
455 3.999802683076671 -1.0076705672712996 -0.7877771649572339
456 -6.56372387623933 1.5777018474122741 -1.1853962408449934
478 6.928678307017632 -1.1146832494023875 -2.323565907610713
458 2.88640317852182 -4.942350491545223 -1.0704712630020274
459 -7.8430161269833105 -8.954017927955304 13.495073144278066
460 1.6041604260480467 7.02970317768837 1.3711659588465268
477 5.825288043007647 -1.8470481822613927 3.636295369707398
462 -4.397258302336456 -0.2916535599340726 -5.66337114120721
463 9.842032397407628 -0.9416718223080028 3.2769049421450083
464 -0.8507985430739868 12.122540078304246 -0.6079675234930926
465 0.5214279191865269 2.081947858431204 2.108104814068576
466 -3.255784529173168 -3.33593308087379 -6.447178184490569
467 3.064542640532171 -3.313162410131301 -1.049578028677889
468 2.715042526358981 5.835979585526144 -7.184942134155612
469 6.741721528118053 -0.0884115343809566 4.190826234929188
470 -9.441402406400458 1.0604901554451398 3.198808751398427
471 3.2085036433959906 -2.545826428205653 3.7995096298550055
472 -7.772967906253984 0.7678603310564899 0.7007056633610688
473 -4.659956056931165 -4.0519738449942055 -4.147024529713342
474 -3.3799784060920866 5.7340090562386345 -2.4144140928332862
475 -2.5632579533968998 3.5775745904363823 7.914682446283253
476 3.3432038900503094 10.498884344454826 -2.004179965941069
197 -2.782272299016733 -0.7997494813406324 -5.309824143750625
205 -1.407479204588043 -0.27152341568309935 2.5423090644167927
510 -3.0508562796053793 -3.0419117070753123 -0.04913269168567761
453 0.8573884006655607 2.828110920089169 -1.7750412195007936
238 -1.4312755168857019 8.433061521587575 3.4420946820600893
501 -1.5549230013762292 -0.3584847606562972 -2.978642534386836
481 6.596693736826294 -3.176573319437985 -3.5400712847437275
482 -7.283096136052249 -0.04211950920114551 3.0458474754505493
483 3.8612043312312103 -1.1522033786681782 2.9460459909649597
484 -2.7811991464819816 -3.963689330953871 -3.914905101234096
485 -4.510209627247134 6.198119236524177 -5.6788861319442665
512 3.891111976271638 0.9731621463036716 2.41730403030898
487 1.0506500860281407 0.8740319500594019 -4.4166847254932255
488 -7.593636019051005 -1.0419112199431142 5.945194326694849
489 8.344335472315109 2.368994273342373 -0.7305108197924494
490 2.3155052202613278 0.8636137370787209 -7.167027115139178
491 1.4384483024362777 0.32752454190165164 -8.120103104644715
492 4.142034061040051 6.709909703012024 4.601265577580008
493 -1.1158612706256952 4.226288332158206 -6.4179638052754955
494 -2.777720048892114 -1.385779366180804 0.007663285931938628
495 -3.4418421734012026 -1.1505151789732022 3.192869799609412
496 0.04415931106387693 0.6138812204869117 3.3174084852972503
497 0.7310355177276551 -6.468985808125629 -3.2180317654497177
287 4.651680733373367 0.7414557551624398 0.5402661991918432
499 -0.8339628233171672 5.849498491633131 0.014646940595740301
500 -1.6345230858375035 -6.25691208607894 1.7495757744907403
299 -2.2712129476028773 -2.459916325298859 4.261348766044225
502 5.6654447196607345 -4.563892653823547 3.923294591168543
503 0.7463405855578541 -2.279948309563593 2.2940255310691993
504 -12.914913391121921 3.093850356818673 -4.924813289520455
505 1.6556434363358417 0.4528103586230857 9.889425659839869
506 -5.24269460768284 -1.0713188562276235 6.888539676722865
507 3.9198590739947803 3.7270378539367206 5.743264444949858
508 -0.017857613106805306 -1.3902681906144292 -5.538840148220246
509 2.339341757322488 1.3867752971011322 3.4985374784060963
281 -1.6492591926914522 4.952529505490871 -4.679516013066796
511 -6.2791079111399695 -1.9534605608106028 3.9202872746181634
19 15.107241120586325 3.216908525296985 -0.4692309145674379
260 3.366509860648638 -4.435416661220188 -6.817328851577365
302 5.157841963175855 -8.331223742964008 -2.5902264375819097
266 -1.292974920454068 3.749160518045697 3.016249561176508
7 -3.6598153689090984 -2.8424124399275197 0.34740764592040774
272 -1.0902597443007314 -6.71841817581739 6.613435548631073
498 -5.196400412423078 -3.6625511764382788 1.18832321902801
